42   
Generated by geomeTRIC from /home/hpark21/research/qcf_neb/rxns/INV24/Hexahelicene_TS/irc/interpolated.xyz: Frame 1 of 101
C        0.2013625964   -5.2210206465   -1.5855777906
C        1.0969613297   -4.1834225125   -1.9089980310
C        0.8001492211   -2.8732589009   -1.5882277903
C       -0.4065620598   -2.5215075039   -0.9322799568
C       -1.3470835920   -3.5716060125   -0.6874070021
C       -1.0046822023   -4.9111498578   -0.9934014620
C       -2.6537543198   -3.2547750910   -0.2018809988
C       -3.0466252179   -1.9567659968   -0.0873129746
C       -2.1362081990   -0.8801791791   -0.3357439244
C       -0.7644179168   -1.1468991107   -0.5988496889
C       -2.6297369544    0.4558002086   -0.3753750611
C       -1.8111056701    1.4777644156   -0.7588245023
C       -0.4115612401    1.2635662134   -0.9172389364
C        0.1541815042   -0.0191284057   -0.6413896499
C        0.4216208379    2.3343805139   -1.3517916777
C        1.7678141596    2.1559464059   -1.4836226051
C        2.3851186213    0.9727048819   -0.9847330331
C        1.5932695002   -0.0714842004   -0.4326041302
C        3.8131792020    0.8719538614   -0.9882356536
C        4.4496357470   -0.1595091271   -0.3691659451
C        3.7049840318   -1.1070514815    0.4000813687
C        2.2754021674   -1.0465319754    0.4112162952
C        4.3779527286   -2.0572144523    1.2059530245
C        3.6818757904   -2.8898669412    2.0563883076
C        2.2801971877   -2.7781110282    2.1365736314
C        1.5989146116   -1.8842404085    1.3337173367
H        2.0274436586   -4.4108044411   -2.4221071882
H        5.5339788179   -0.2374682059   -0.3880291743
H        4.2097598117   -3.6062729719    2.6800438770
H        5.4640733342   -2.0947541824    1.1633501130
H        4.3796223036    1.6502096067   -1.4940030948
H        2.3994131608    2.9436218008   -1.8867049934
H       -0.0452076777    3.2809654413   -1.6125301991
H       -2.2020966518    2.4803790318   -0.9128549870
H       -3.6854215958    0.6272867950   -0.1807657417
H       -3.3466628756   -4.0670880193    0.0038134062
H        0.4476292826   -6.2516238242   -1.8264610338
H       -1.7300616634   -5.6923364396   -0.7774081827
H       -4.0683117362   -1.7093656080    0.1903764067
H        1.4963855617   -2.0942845485   -1.8688653174
H        0.5240997223   -1.8056884363    1.4325864422
H        1.7272808661   -3.3943928900    2.8404539346
42   
Generated by geomeTRIC from /home/hpark21/research/qcf_neb/rxns/INV24/Hexahelicene_TS/irc/interpolated.xyz: Frame 101 of 101
C       -0.7006971526   -4.7813517709    1.3432277348
C        0.1367351856   -3.7326133792    1.7700480074
C        0.1484138361   -2.5251936115    1.0991100648
C       -0.6752388407   -2.2917226466   -0.0308663568
C       -1.5876163595   -3.3313176740   -0.3993910984
C       -1.5545017049   -4.5725853653    0.2810897657
C       -2.5766433030   -3.0870308399   -1.4026051952
C       -2.7318890461   -1.8385703533   -1.9212621951
C       -1.8435791225   -0.7727390061   -1.5689134074
C       -0.7060213566   -1.0243891107   -0.7533407212
C       -2.1438658077    0.5534535828   -1.9945487789
C       -1.3933110808    1.6027078563   -1.5506714714
C       -0.1817698816    1.3750961428   -0.8366082253
C        0.2731736751    0.0409887466   -0.6015908599
C        0.5741378915    2.4837898568   -0.3585652822
C        1.7511553013    2.2873299243    0.3033104167
C        2.3437313448    0.9923171695    0.3401570397
C        1.6711052327   -0.1216879991   -0.2327408943
C        3.6476069845    0.8347590156    0.9099459611
C        4.3173195222   -0.3469005662    0.8244949316
C        3.7781056789   -1.4259119304    0.0566841369
C        2.4732304924   -1.3063532774   -0.5185406221
C        4.5570889057   -2.5809012335   -0.1970831626
C        4.1091406100   -3.5704558451   -1.0463303012
C        2.8649791968   -3.4172592722   -1.6880909633
C        2.0712222074   -2.3171971395   -1.4276852312
H        0.7756756710   -3.8678938038    2.6385002230
H        5.3002332982   -0.4653842630    1.2740873212
H        4.7218743128   -4.4463647510   -1.2420292767
H        5.5364083299   -2.6573838513    0.2699979434
H        4.0938489547    1.6906432815    1.4106411906
H        2.2955816727    3.1227500389    0.7362665388
H        0.1723595580    3.4839965693   -0.5000718832
H       -1.6827938398    2.6281402069   -1.7665873339
H       -3.0283922898    0.7177996711   -2.6046903188
H       -3.2454282992   -3.8962471143   -1.6855274921
H       -0.6941321011   -5.7344949379    1.8649176609
H       -2.2441836293   -5.3526392667   -0.0332692110
H       -3.5422743721   -1.6207332968   -2.6126195626
H        0.7863098352   -1.7306878746    1.4643253716
H        1.1294934366   -2.2157102643   -1.9511776228
H        2.5262133497   -4.1652749562   -2.3998334279
