42   
Interpolated frame 0 (method 5)
C       -0.5491803991   -3.8547534200   -1.2346769129
C        0.3464183446   -2.8171552841   -1.5580971395
C        0.0496062283   -1.5069916604   -1.2373269101
C       -1.1571050688   -1.1552402763   -0.5813790781
C       -2.0976265986   -2.2053387878   -0.3365061352
C       -1.7552252041   -3.5448826324   -0.6425005946
C       -3.4042973280   -1.8885078702    0.1490198669
C       -3.7971682244   -0.5904987759    0.2635878959
C       -2.8867512048    0.4860880432    0.0151569529
C       -1.5149609215    0.2193681131   -0.2479488061
C       -3.3802799598    1.8220674300   -0.0244741859
C       -2.5616486742    2.8440316360   -0.4079236272
C       -1.1621042443    2.6298334336   -0.5663380606
C       -0.5963614996    1.3471388149   -0.2904887712
C       -0.3289221666    3.7006477335   -1.0008908052
C        1.0172711549    3.5222136253   -1.1327217337
C        1.6345756165    2.3389721012   -0.6338321618
C        0.8427264946    1.2947830192   -0.0817032572
C        3.0626361974    2.2382210805   -0.6373347836
C        3.6990927427    1.2067580920   -0.0182650757
C        2.9544410270    0.2592157380    0.7509822375
C        1.5248591610    0.3197352452    0.7621171652
C        3.6274097233   -0.6909472348    1.5568538935
C        2.9313327870   -1.5235997246    2.4072891779
C        1.5296541837   -1.4118438111    2.4874745063
C        0.8483716152   -0.5179731883    1.6846182108
H        1.2769006770   -3.0445372239   -2.0712062907
H        4.7834358136    1.1287990128   -0.0371283050
H        3.4592168098   -2.2400057549    3.0309447471
H        4.7135303292   -0.7284869654    1.5142509815
H        3.6290792988    3.0164768259   -1.1431022249
H        1.6488701559    4.3098890198   -1.5358041234
H       -0.7957506823    4.6472326605   -1.2616293280
H       -2.9526396556    3.8466462518   -0.5619541149
H       -4.4359646014    1.9935540161    0.1701351298
H       -4.0972058834   -2.7008207996    0.3547142686
H       -0.3029137153   -4.8853566018   -1.4755601578
H       -2.4806046668   -4.3260692168   -0.4265073216
H       -4.8188547430   -0.3430983877    0.5412772750
H        0.7458425181   -0.7280173881   -1.5179645175
H       -0.2264432977   -0.4394212208    1.7834873007
H        0.9767378609   -2.0281256677    3.1913548129
42   
Interpolated frame 1 (method 5)
C       -0.5632797122   -3.8684470566   -1.2229743983
C        0.3326577588   -2.8295321451   -1.5146158658
C        0.0126916168   -1.5403018583   -1.1835197542
C       -1.1965757074   -1.1666926306   -0.5635830256
C       -2.1277251802   -2.2171003715   -0.3383619550
C       -1.7743453915   -3.5532118045   -0.6455601897
C       -3.4326004145   -1.8963679445    0.1364617030
C       -3.8085538070   -0.5925937626    0.2489790823
C       -2.8975850660    0.4878947114    0.0079812747
C       -1.5274618228    0.2190019764   -0.2447457611
C       -3.3854332943    1.8225849360   -0.0334414776
C       -2.5628099983    2.8431609863   -0.4107704368
C       -1.1627381684    2.6285626981   -0.5642849419
C       -0.5939410465    1.3457734852   -0.2882057357
C       -0.3297891208    3.7022735061   -0.9954724081
C        1.0173856690    3.5310525110   -1.1236798992
C        1.6386508358    2.3531211740   -0.6283343397
C        0.8542349174    1.3049572563   -0.0840453734
C        3.0691525170    2.2521480280   -0.6248643002
C        3.7219421891    1.2268622960   -0.0088344865
C        2.9870704856    0.2713601854    0.7538347837
C        1.5682043056    0.3391546621    0.7425994912
C        3.6476646805   -0.6842970732    1.5582622875
C        2.9494972650   -1.5271247210    2.3951214651
C        1.5505636975   -1.4195223739    2.4466570687
C        0.8972934992   -0.5182713024    1.6367857609
H        1.2738886212   -3.0491065001   -2.0052043162
H        4.8018245391    1.1522421020   -0.0241857755
H        3.4674720915   -2.2470879608    3.0185924148
H        4.7292014396   -0.7208749248    1.5265955065
H        3.6307024756    3.0325638367   -1.1265243575
H        1.6469974066    4.3207066007   -1.5223058998
H       -0.7981998057    4.6479851115   -1.2560849181
H       -2.9522119722    3.8461862185   -0.5653707960
H       -4.4406167574    1.9945426539    0.1554093327
H       -4.1234773470   -2.7056955298    0.3355069601
H       -0.3096993940   -4.8935407147   -1.4654645931
H       -2.4969457462   -4.3334996833   -0.4419177107
H       -4.8279480814   -0.3416599366    0.5209684564
H        0.6990323994   -0.7471606839   -1.4116125626
H       -0.1734922769   -0.4238781812    1.6790850196
H        0.9893017001   -2.0461677762    3.1311246715
42   
Interpolated frame 2 (method 5)
C       -0.5774026865   -3.8821725078   -1.2113303387
C        0.3188096163   -2.8419941945   -1.4711919723
C       -0.0243161387   -1.5737290600   -1.1298500479
C       -1.2360794391   -1.1782019194   -0.5458862524
C       -2.1578185137   -2.2288804137   -0.3402966852
C       -1.7934621325   -3.5615511447   -0.6486739199
C       -3.4608788496   -1.9042275372    0.1238403834
C       -3.8199127689   -0.5946732134    0.2343547592
C       -2.9084081151    0.4897059279    0.0007962691
C       -1.5399710574    0.2186219925   -0.2415642658
C       -3.3905703481    1.8231146063   -0.0424054484
C       -2.5639653493    2.8422959808   -0.4136099687
C       -1.1633748967    2.6272900859   -0.5622290437
C       -0.5915240848    1.3444067901   -0.2859169362
C       -0.3306663467    3.7038930830   -0.9900484871
C        1.0174789577    3.5398801594   -1.1146226385
C        1.6427091308    2.3672665790   -0.6228064942
C        0.8657440261    1.3151444136   -0.0863473179
C        3.0756393721    2.2660613869   -0.6123637454
C        3.7447653991    1.2469674629    0.0006677948
C        3.0196919942    0.2835214156    0.7567674033
C        1.6115808143    0.3586357779    0.7232008144
C        3.6679197086   -0.6776365221    1.5597141039
C        2.9676961400   -1.5306187908    2.3829777562
C        1.5715671970   -1.4271192098    2.4058666442
C        0.9463172524   -0.5184567906    1.5890519993
H        1.2707377770   -3.0537926085   -1.9392284504
H        4.8201788720    1.1756777375   -0.0111782916
H        3.4757656738   -2.2541459988    3.0062362557
H        4.7448508772   -0.7132738239    1.5389723365
H        3.6322868341    3.0486283799   -1.1099241535
H        1.6450938238    4.3315052558   -1.5087943957
H       -0.8006588978    4.6487309205   -1.2505374101
H       -2.9517769907    3.8457345961   -0.5687739112
H       -4.4452417284    1.9955532277    0.1406925230
H       -4.1497138348   -2.7105581575    0.3162471508
H       -0.3165105851   -4.9017498040   -1.4554057015
H       -2.5132601207   -4.3409183219   -0.4573735102
H       -4.8370056122   -0.3401951337    0.5006589029
H        0.6520144750   -0.7665172416   -1.3053951990
H       -0.1203353496   -0.4081223202    1.5748207869
H        1.0020059046   -2.0641010652    3.0708887018
42   
Interpolated frame 3 (method 5)
C       -0.5915491033   -3.8959297215   -1.1997447853
C        0.3048744103   -2.8545415044   -1.4278256663
C       -0.0614163543   -1.6072732507   -1.0763179045
C       -1.2756159375   -1.1897680463   -0.5282885961
C       -2.1879064705   -2.2406787839   -0.3423101432
C       -1.8125753364   -3.5699005580   -0.6518416956
C       -3.4891326165   -1.9120865133    0.1111561553
C       -3.8312451941   -0.5967370699    0.2197150950
C       -2.9192203903    0.4915217229   -0.0063979167
C       -1.5524885571    0.2182281809   -0.2384042324
C       -3.3956912102    1.8236564551   -0.0513659622
C       -2.5651147861    2.8414366129   -0.4164421396
C       -1.1640144423    2.6260155888   -0.5601703247
C       -0.5891106180    1.3430387114   -0.2836223806
C       -0.3315538457    3.7055064530   -0.9846189960
C        1.0175510400    3.5486965408   -1.1055499247
C        1.6467504842    2.3814082723   -0.6172486202
C        0.8772537280    1.3253444439   -0.0886091230
C        3.0820968029    2.2799610930   -0.5998331796
C        3.7675623363    1.2670734616    0.0102415947
C        3.0523054508    0.2956992874    0.7597798527
C        1.6549883310    0.3781784701    0.7039209551
C        3.6881747583   -0.6709656614    1.5612091678
C        2.9859292749   -1.5340819450    2.3708579297
C        1.5926642776   -1.4346342257    2.3651032431
C        0.9954422844   -0.5185296485    1.5414167983
H        1.2674487972   -3.0585957579   -1.8732790924
H        4.8384988190    1.1991057954    0.0018939894
H        3.4840974692   -2.2611798367    2.9938762011
H        4.7604787078   -0.7056837603    1.5513812691
H        3.6338324528    3.0646704021   -1.0933016424
H        1.6431594595    4.3422849533   -1.4952695783
H       -0.8031279652    4.6494700824   -1.2449867302
H       -2.9513347944    3.8452913712   -0.5721633662
H       -4.4498396598    1.9965857566    0.1259848730
H       -4.1759153913   -2.7154085471    0.2969351050
H       -0.3233471059   -4.9099838452   -1.4453835865
H       -2.5295478131   -4.3483250098   -0.4728745930
H       -4.8460274866   -0.3387039313    0.4803488135
H        0.6047899129   -0.7860872575   -1.1993127028
H       -0.0669736651   -0.3921534615    1.4706947911
H        1.0148499465   -2.0819253192    3.0106470485
42   
Interpolated frame 4 (method 5)
C       -0.6057187437   -3.9097186463   -1.1882177899
C        0.2908526355   -2.8671741490   -1.3845171550
C       -0.0986083451   -1.6409344182   -1.0229234371
C       -1.3151848767   -1.2013909164   -0.5107898934
C       -2.2179889227   -2.2524953525   -0.3444021462
C       -1.8316849132   -3.5782599495   -0.6550634274
C       -3.5173616999   -1.9199447383    0.0984092665
C       -3.8425511672   -0.5987852735    0.2050602578
C       -2.9300219303    0.4933421265   -0.0136011347
C       -1.5650142538    0.2178205601   -0.2352655723
C       -3.4007959697    1.8242104968   -0.0603228825
C       -2.5662583673    2.8405828761   -0.4192668658
C       -1.1646568179    2.6247391986   -0.5581087428
C       -0.5867006494    1.3416692312   -0.2813220766
C       -0.3324516191    3.7071136047   -0.9791838878
C        1.0176019354    3.5575016251   -1.0964617300
C        1.6507748785    2.3955462099   -0.6116607118
C        0.8887639305    1.3355573002   -0.0908308211
C        3.0885248496    2.2938470818   -0.5872726616
C        3.7903329647    1.2871801615    0.0198867401
C        3.0849107541    0.3078936598    0.7628718878
C        1.6984265000    0.3977826179    0.6847597329
C        3.7084297810   -0.6642845706    1.5627473035
C        3.0041965334   -1.5375141939    2.3587618629
C        1.6138545343   -1.4420673260    2.3243668730
C        1.0446680049   -0.5184898685    1.4938800265
H        1.2640223370   -3.0635161595   -1.8073566405
H        4.8567843871    1.2225261519    0.0150309109
H        3.4924673901   -2.2681894419    2.9815121806
H        4.7760849978   -0.6981048320    1.5638221015
H        3.6353394107    3.0806898495   -1.0766568522
H        1.6411943658    4.3530456611   -1.4817314132
H       -0.8056070147    4.6502025920   -1.2394328035
H       -2.9508854669    3.8448565304   -0.5755390662
H       -4.4544106977    1.9976402603    0.1112865556
H       -4.2020820627   -2.7202465626    0.2775710871
H       -0.3302087737   -4.9182428140   -1.4353983525
H       -2.5458088472   -4.3557196241   -0.4884208327
H       -4.8550138567   -0.3371862815    0.4600383875
H        0.5573598842   -0.8058709333   -1.0933653474
H       -0.0134083754   -0.3759714236    1.3667072169
H        1.0278332965   -2.0996403202    2.9503998531
42   
Interpolated frame 5 (method 5)
C       -0.6198163175   -3.9233335312   -1.1763182134
C        0.2762920507   -2.8797163329   -1.3402954511
C       -0.1355890208   -1.6739061144   -0.9699586725
C       -1.3538895360   -1.2125565362   -0.4936590479
C       -2.2474070638   -2.2640052242   -0.3466224637
C       -1.8506359452   -3.5864966212   -0.6581247918
C       -3.5450179265   -1.9275981985    0.0853768521
C       -3.8535791012   -0.6008727649    0.1902739097
C       -2.9405401094    0.4950293642   -0.0208443261
C       -1.5771948326    0.2173205044   -0.2321028784
C       -3.4057446519    1.8246569162   -0.0693354230
C       -2.5673390946    2.8396688729   -0.4221024845
C       -1.1652448156    2.6233836836   -0.5560015196
C       -0.5842180723    1.3401753270   -0.2789699628
C       -0.3333363590    3.7086680529   -0.9736368928
C        1.0176264296    3.5661861296   -1.0871876526
C        1.6547319627    2.4094716712   -0.6058842930
C        0.9001528363    1.3455231355   -0.0929398079
C        3.0948197726    2.3076101579   -0.5744881941
C        3.8126605947    1.3071829021    0.0297676266
C        3.1167964196    0.3200331701    0.7659115842
C        1.7409436303    0.4173678664    0.6659090439
C        3.7283843841   -0.6576425826    1.5639929682
C        3.0222692752   -1.5409814811    2.3461567749
C        1.6352966017   -1.4493382706    2.2827461555
C        1.0931334656   -0.5181263406    1.4463359220
H        1.2596553170   -3.0688754516   -1.7400902233
H        4.8746812716    1.2457428149    0.0285089430
H        3.5006707623   -2.2752552895    2.9685821246
H        4.7913722252   -0.6905048313    1.5760351326
H        3.6367637125    3.0966217825   -1.0596704703
H        1.6392019049    4.3637129217   -1.4679422913
H       -0.8080669496    4.6509055146   -1.2337501961
H       -2.9504040441    3.8443631982   -0.5789338675
H       -4.4588390785    1.9985709188    0.0964697942
H       -4.2276817721   -2.7249839312    0.2578865380
H       -0.3369354759   -4.9263133619   -1.4249741536
H       -2.5619503481   -4.3628871479   -0.5039130119
H       -4.8637753338   -0.3357890679    0.4395107712
H        0.5093079727   -0.8266771298   -0.9887905650
H        0.0407477245   -0.3590329042    1.2639316784
H        1.0416975346   -2.1173017913    2.8891410353
42   
Interpolated frame 6 (method 5)
C       -0.6334082771   -3.9358341400   -1.1620702702
C        0.2591052125   -2.8913723985   -1.2907094473
C       -0.1709714774   -1.7024889408   -0.9187625915
C       -1.3876147086   -1.2209044915   -0.4781259904
C       -2.2731368540   -2.2737168058   -0.3491991830
C       -1.8687183589   -3.5940036574   -0.6600463052
C       -3.5695827570   -1.9341088978    0.0710340857
C       -3.8631719957   -0.6032508578    0.1748187124
C       -2.9495225964    0.4959513292   -0.0282714160
C       -1.5874091510    0.2163666998   -0.2287078415
C       -3.4098934704    1.8244462717   -0.0786773073
C       -2.5680948581    2.8383923699   -0.4250337200
C       -1.1655160986    2.6215944395   -0.5536518761
C       -0.5813137519    1.3379922228   -0.2763543504
C       -0.3341020571    3.7099561072   -0.9674883312
C        1.0175989241    3.5742478287   -1.0769426501
C        1.6583893904    2.4222262118   -0.5991895315
C        0.9108616327    1.3540495010   -0.0946021969
C        3.1005029929    2.3207482722   -0.5605851819
C        3.8326304243    1.3266005426    0.0406426301
C        3.1446972630    0.3317909969    0.7682942706
C        1.7781717207    0.4365649514    0.6482488326
C        3.7466615869   -0.6512637063    1.5634086055
C        3.0391026071   -1.5447823833    2.3305980095
C        1.6577291507   -1.4560691433    2.2360612536
C        1.1368918947   -0.5164667388    1.3982985861
H        1.2506458156   -3.0761656516   -1.6651969301
H        4.8905599360    1.2678546451    0.0436013914
H        3.5077725637   -2.2827430980    2.9525057230
H        4.8049745640   -0.6827347043    1.5868321370
H        3.6378996974    3.1121665608   -1.0408713213
H        1.6371949427    4.3739439711   -1.4528074149
H       -0.8103753378    4.6514731621   -1.2273611030
H       -2.9497752712    3.8435048579   -0.5824989160
H       -4.4625911442    1.9987094312    0.0809450657
H       -4.2502686312   -2.7292134050    0.2366452457
H       -0.3427960418   -4.9332199496   -1.4119286929
H       -2.5775450406   -4.3688414920   -0.5189007868
H       -4.8714391138   -0.3351849292    0.4177659037
H        0.4587240450   -0.8522197082   -0.8912823371
H        0.0972725756   -0.3388419245    1.1673082058
H        1.0598600530   -2.1351533490    2.8222570345
42   
Interpolated frame 7 (method 5)
C       -0.6470281330   -3.9483733146   -1.1478870319
C        0.2418161750   -2.9031342118   -1.2411934456
C       -0.2064470044   -1.7311928214   -0.8677028918
C       -1.4213708745   -1.2293064699   -0.4626829180
C       -2.2988599092   -2.2834449240   -0.3518522431
C       -1.8867980700   -3.6015236008   -0.6620284852
C       -3.5941186569   -1.9406149058    0.0566276632
C       -3.8727353991   -0.6056112071    0.1593441018
C       -2.9584930596    0.4968787059   -0.0357094780
C       -1.5976321296    0.2153985218   -0.2253335956
C       -3.4140247666    1.8242488896   -0.0880176582
C       -2.5688444732    2.8371218720   -0.4279576749
C       -1.1657907815    2.6198030475   -0.5512982418
C       -0.5784133218    1.3358073983   -0.2737326005
C       -0.3348797590    3.7112372683   -0.9613304256
C        1.0175474834    3.5822968744   -1.0666768909
C        1.6620275345    2.4349758988   -0.5924604572
C        0.9215705114    1.3625887700   -0.0962236384
C        3.1061529880    2.3338705968   -0.5466455701
C        3.8525698625    1.3460163834    0.0515940393
C        3.1725901014    0.3435653404    0.7707559293
C        1.8154279078    0.4558217312    0.6307042331
C        3.7649415437   -0.6448710884    1.5628703201
C        3.0559768247   -1.5485452644    2.3150634259
C        1.6802694938   -1.4627003811    2.1894096122
C        1.1807545495   -0.5146885040    1.3503578732
H        1.2414775467   -3.0836024636   -1.5903509592
H        4.9063986349    1.2899549728    0.0587645312
H        3.5149194810   -2.2901999375    2.9364241132
H        4.8185556688   -0.6749745274    1.5976658691
H        3.6389912358    3.1276855003   -1.0220405953
H        1.6351532227    4.3841539580   -1.4376516586
H       -0.8126957436    4.6520333698   -1.2209644990
H       -2.9491389752    3.8426555760   -0.5860498672
H       -4.4663136604    1.9988719363    0.0654260717
H       -4.2728147711   -2.7334256289    0.2153483029
H       -0.3486866257   -4.9401578156   -1.3989244590
H       -2.5931115751   -4.3747841045   -0.5339414308
H       -4.8790627006   -0.3345511041    0.3960144427
H        0.4079474214   -0.8779799676   -0.7939362934
H        0.1539917232   -0.3184320639    1.0708458925
H        1.0781804798   -2.1528723054    2.7553765877
42   
Interpolated frame 8 (method 5)
C       -0.6606756828   -3.9609510736   -1.1337686943
C        0.2244253266   -2.9150020547   -1.1917478299
C       -0.2420150919   -1.7600179608   -0.8167799711
C       -1.4551577868   -1.2377624800   -0.4473298680
C       -2.3245760907   -2.2931894744   -0.3545816177
C       -1.9048749598   -3.6090563692   -0.6640713587
C       -3.6186255639   -1.9471160626    0.0421577235
C       -3.8822693406   -0.6079537061    0.1438502309
C       -2.9674515145    0.4978115403   -0.0431583782
C       -1.6078637144    0.2144159605   -0.2219801053
C       -3.4181385986    1.8240648164   -0.0973563166
C       -2.5695879908    2.8358573860   -0.4308742358
C       -1.1660688861    2.6180094925   -0.5489405648
C       -0.5755167925    1.3336208298   -0.2711047134
C       -0.3356694932    3.7125115026   -0.9551631139
C        1.0174720765    3.5903331968   -1.0563903221
C        1.6656463372    2.4477206635   -0.5856970159
C        0.9322793772    1.3711409127   -0.0978040902
C        3.1117697319    2.3469770153   -0.5326693754
C        3.8724788138    1.3654302674    0.0626218112
C        3.2004748108    0.3553560872    0.7732964834
C        1.8527118974    0.4751381897    0.6132753244
C        3.7832241917   -0.6384647845    1.5623780241
C        3.0728918445   -1.5522700506    2.2995529622
C        1.7029173658   -1.4692316816    2.1427913450
C        1.2247210265   -0.5127913977    1.3025139099
H        1.2321509872   -3.0911863897   -1.5155528706
H        4.9221973028    1.3120436237    0.0739983075
H        3.5221114944   -2.2976256989    2.9203372248
H        4.8321155518   -0.6672244263    1.6085361799
H        3.6400383209    3.1431784684   -1.0031782988
H        1.6330767255    4.3943427891   -1.4224749700
H       -0.8150282017    4.6525861087   -1.2145602942
H       -2.9484952316    3.8418153579   -0.5895865780
H       -4.4700067212    1.9990585111    0.0499130286
H       -4.2953201693   -2.7376204124    0.1939958884
H       -0.3546070696   -4.9471269991   -1.3859616610
H       -2.6086499057   -4.3807148218   -0.5490348978
H       -4.8866461741   -0.3338874684    0.3742566109
H        0.3569788985   -0.9039584442   -0.6967530353
H        0.2109043892   -0.2978027932    0.9745452475
H        1.0966585094   -2.1704581696    2.6884998746
42   
Interpolated frame 9 (method 5)
C       -0.6743507228   -3.9735674361   -1.1197154547
C        0.2069330595   -2.9269762118   -1.1423729854
C       -0.2776752255   -1.7889645661   -0.7659942279
C       -1.4889751977   -1.2462725321   -0.4320668762
C       -2.3502852601   -2.3029503530   -0.3573872796
C       -1.9229489096   -3.6166018800   -0.6661749527
C       -3.6431034173   -1.9536122078    0.0276244070
C       -3.8917738507   -0.6102782478    0.1283372541
C       -2.9763979777    0.4987498788   -0.0506179815
C       -1.6181038513    0.2134190057   -0.2186473341
C       -3.4222350256    1.8238940986   -0.1066931219
C       -2.5703254619    2.8345989185   -0.4337832881
C       -1.1663504338    2.6162137595   -0.5465787920
C       -0.5726241748    1.3314324931   -0.2684706893
C       -0.3364712884    3.7137787764   -0.9489863328
C        1.0173726725    3.5983567258   -1.0460828896
C        1.6692457406    2.4604604366   -0.5788991522
C        0.9429881346    1.3797058991   -0.0993435102
C        3.1173531989    2.3600674101   -0.5186566140
C        3.8923571833    1.3848420366    0.0737259020
C        3.2283512676    0.3671631235    0.7759158542
C        1.8900233945    0.4945143116    0.5959621843
C        3.8015094683   -0.6320448506    1.5619316276
C        3.0898475825   -1.5559566672    2.2840665541
C        1.7256724987   -1.4756627393    2.0962065632
C        1.2687909195   -0.5107751780    1.2547668200
H        1.2226666202   -3.0989179362   -1.4408032257
H        4.9379558754    1.3341204226    0.0893026652
H        3.5293485839   -2.3050202721    2.9042449854
H        4.8456542266   -0.6594845271    1.6194429191
H        3.6410409464    3.1586453317   -0.9842844365
H        1.6309654319    4.4045103698   -1.4072772952
H       -0.8173727470    4.6531313496   -1.2081483972
H       -2.9478441169    3.8409842088   -0.5931089034
H       -4.4736704221    1.9992692330    0.0344061540
H       -4.3177848049   -2.7417975645    0.1725881829
H       -0.3605572143   -4.9541275393   -1.3730405096
H       -2.6241599875   -4.3866334793   -0.5641811421
H       -4.8941896162   -0.3331938971    0.3524926325
H        0.3058192805   -0.9301556806   -0.5997331634
H        0.2680097884   -0.2769535770    0.8784067777
H        1.1152938324   -2.1879104465    2.6216270719
42   
Interpolated frame 10 (method 5)
C       -0.6870424137   -3.9842781461   -1.1046701969
C        0.1881018762   -2.9379525125   -1.0903261052
C       -0.3093240539   -1.8119262527   -0.7149872088
C       -1.5178079394   -1.2532370637   -0.4173711762
C       -2.3720240550   -2.3111923772   -0.3599806993
C       -1.9396328246   -3.6232703639   -0.6674902448
C       -3.6641343974   -1.9590620967    0.0126997106
C       -3.8999399446   -0.6126269063    0.1130773187
C       -2.9840432588    0.4991456122   -0.0576660108
C       -1.6269449833    0.2118327082   -0.2145890500
C       -3.4256299710    1.8232966260   -0.1158471404
C       -2.5707516999    2.8330623432   -0.4365904586
C       -1.1663584758    2.6138696074   -0.5441341849
C       -0.5693934112    1.3283253066   -0.2656941518
C       -0.3371733250    3.7146166688   -0.9427148435
C        1.0172412361    3.6056327028   -1.0355815916
C        1.6725770434    2.4719099082   -0.5719370026
C        0.9531400191    1.3868760652   -0.1010935806
C        3.1222545168    2.3722455007   -0.5045240977
C        3.9095250298    1.4028492123    0.0851681641
C        3.2521616048    0.3776483374    0.7777105672
C        1.9225286830    0.5121822522    0.5796917105
C        3.8179325748   -0.6262590906    1.5599532862
C        3.1049393533   -1.5594941588    2.2667668866
C        1.7484430882   -1.4815570950    2.0468250061
C        1.3062653533   -0.5086770114    1.2048658131
H        1.2097044475   -3.1092937246   -1.3623228726
H        4.9514476114    1.3544481073    0.1053280614
H        3.5351650447   -2.3120751068    2.8865285203
H        4.8574665278   -0.6519726395    1.6289355340
H        3.6418288945    3.1733104944   -0.9647866825
H        1.6288525926    4.4140417025   -1.3917302751
H       -0.8196018343    4.6533808182   -1.2015308885
H       -2.9469911225    3.8398945518   -0.5966153428
H       -4.4767179285    1.9989939179    0.0189586359
H       -4.3370336374   -2.7454489984    0.1506560014
H       -0.3657045594   -4.9594799043   -1.3590511240
H       -2.6386023077   -4.3914070076   -0.5789020105
H       -4.9007490839   -0.3330698815    0.3306456735
H        0.2544550234   -0.9554926025   -0.5038200472
H        0.3242736965   -0.2543374676    0.7835718086
H        1.1372970104   -2.2054520354    2.5525742885
42   
Interpolated frame 11 (method 5)
C       -0.6992450817   -3.9940354796   -1.0891475107
C        0.1685374897   -2.9484771974   -1.0369523648
C       -0.3389701452   -1.8318888532   -0.6639088571
C       -1.5441089717   -1.2594334654   -0.4029932719
C       -2.3917335278   -2.3186646900   -0.3624932643
C       -1.9556060400   -3.6294979815   -0.6684326192
C       -3.6833921415   -1.9639730149   -0.0024501536
C       -3.9074101677   -0.6149801441    0.0979345502
C       -2.9910197513    0.4992662312   -0.0645105634
C       -1.6350770173    0.2099378107   -0.2101698580
C       -3.4286596912    1.8224868787   -0.1249092094
C       -2.5710168204    2.8313863111   -0.4393426355
C       -1.1662284179    2.6112447234   -0.5416447633
C       -0.5659915071    1.3247483539   -0.2628428510
C       -0.3378298711    3.7152328365   -0.9363874201
C        1.0170827040    3.6125220095   -1.0249673592
C        1.6757630211    2.4826990892   -0.5648729115
C        0.9630087417    1.3933410765   -0.1029338013
C        3.1267926676    2.3839510555   -0.4903094799
C        3.9252949936    1.4201367076    0.0968158747
C        3.2738947000    0.3874656039    0.7791123515
C        1.9525907614    0.5290007579    0.5639936842
C        3.8334085907   -0.6207887494    1.5572128091
C        3.1190997639   -1.5629358142    2.2485506389
C        1.7712738096   -1.4871240644    1.9960327030
C        1.3404239096   -0.5064807463    1.1538937059
H        1.1948930286   -3.1211002778   -1.2819778395
H        4.9637628408    1.3738754073    0.1217537415
H        3.5402771288   -2.3189407966    2.8679798245
H        4.8683895685   -0.6445802978    1.6377248517
H        3.6424862013    3.1875546481   -0.9449585982
H        1.6267230251    4.4232393537   -1.3759885088
H       -0.8217777941    4.6534763532   -1.1948009124
H       -2.9460321940    3.8386770621   -0.6001071368
H       -4.4794382629    1.9984809896    0.0035403056
H       -4.3546210371   -2.7488212669    0.1284307111
H       -0.3704553134   -4.9640067207   -1.3445362941
H       -2.6524861872   -4.3955905807   -0.5934336870
H       -4.9067879705   -0.3332231139    0.3087470430
H        0.2029045798   -0.9804932437   -0.4085458328
H        0.3801881113   -0.2307177839    0.6894781858
H        1.1610922737   -2.2229689775    2.4824167232
42   
Interpolated frame 12 (method 5)
C       -0.7114742893   -4.0038318170   -1.0736866229
C        0.1488716286   -2.9591154812   -0.9836525615
C       -0.3687070969   -1.8519683192   -0.6129375786
C       -1.5704369474   -1.2656769778   -0.3886866079
C       -2.4114362285   -2.3261501381   -0.3650703303
C       -1.9715763169   -3.6357388410   -0.6694354618
C       -3.7026207674   -1.9688756155   -0.0176566246
C       -3.9148528281   -0.6173165417    0.0827696547
C       -2.9979855918    0.4993913352   -0.0713672915
C       -1.6432183712    0.2080275189   -0.2057704400
C       -3.4316735839    1.8216893337   -0.1339719384
C       -2.5712767551    2.8297157448   -0.4420879666
C       -1.1661015887    2.6086178939   -0.5391505284
C       -0.5625929450    1.3211696261   -0.2599865759
C       -0.3384979589    3.7158429640   -0.9300468536
C        1.0169012866    3.6193997274   -1.0143275937
C        1.6789306877    2.4934839520   -0.5577727625
C        0.9728785544    1.3998193865   -0.1047361585
C        3.1312989420    2.3956414817   -0.4760545211
C        3.9410346494    1.4374196860    0.1085345900
C        3.2956216643    0.3972974465    0.7805801778
C        1.9826753962    0.5458707105    0.5483920574
C        3.8488895218   -0.6153029367    1.5545148505
C        3.1333008238   -1.5663378606    2.2303548301
C        1.7942113747   -1.4925848924    1.9452742853
C        1.3746849129   -0.5041672628    1.1029955792
H        1.1799275117   -3.1330662526   -1.2017007441
H        4.9760377865    1.3932882661    0.1382473718
H        3.5454326125   -2.3257745001    2.8494248268
H        4.8792939588   -0.6371961369    1.6465511618
H        3.6430997603    3.2017735646   -0.9250908269
H        1.6245598758    4.4324173040   -1.3602181851
H       -0.8239657673    4.6535651550   -1.1880585676
H       -2.9450668122    3.8374682475   -0.6035849481
H       -4.4821312875    1.9979906725   -0.0118765639
H       -4.3721671568   -2.7521729338    0.1061521658
H       -0.3752339149   -4.9685652723   -1.3300626262
H       -2.6663420681   -4.3997622912   -0.6080206771
H       -4.9127882377   -0.3333476878    0.2868348922
H        0.1511777722   -1.0057084767   -0.3134289170
H        0.4362774087   -0.2068841208    0.5955437337
H        1.1850403844   -2.2403456609    2.4122702965
42   
Interpolated frame 13 (method 5)
C       -0.7237299138   -4.0136672766   -1.0582878735
C        0.1291044267   -2.9698679266   -0.9304272559
C       -0.3985347062   -1.8721651635   -0.5620739928
C       -1.5967917385   -1.2719677338   -0.3744514054
C       -2.4311320291   -2.3336486632   -0.3677120431
C       -1.9875435332   -3.6419928954   -0.6704989578
C       -3.7218201584   -1.9737697225   -0.0329197170
C       -3.9222678781   -0.6196359518    0.0675827165
C       -3.0049407636    0.4995209788   -0.0782361081
C       -1.6513690148    0.2061017792   -0.2013908271
C       -3.4346716597    1.8209040671   -0.1430351783
C       -2.5715315387    2.8280506644   -0.4448263210
C       -1.1659780194    2.6059890988   -0.5366514163
C       -0.5591977418    1.3175890965   -0.2571253200
C       -0.3391776526    3.7164469994   -0.9236930455
C        1.0166968887    3.6262657530   -1.0036621791
C        1.6820799404    2.5042644141   -0.5506364198
C        0.9827493738    1.4063110022   -0.1065005219
C        3.1357732300    2.4073166209   -0.4617591394
C        3.9567438444    1.4546979808    0.1203244425
C        3.3173423836    0.4071438087    0.7821141488
C        2.0127824096    0.5627922221    0.5328871449
C        3.8643753207   -0.6098016560    1.5518594374
C        3.1475425555   -1.5697001151    2.2121794623
C        1.8172557853   -1.4979390091    1.8945499627
C        1.4090482649   -0.5017360035    1.0521717858
H        1.1648080161   -3.1451925230   -1.1214923284
H        4.9882722981    1.4126864688    0.1548090555
H        3.5506315842   -2.3325760242    2.8308634458
H        4.8901796582   -0.6298202916    1.6554144192
H        3.6436694451    3.2159670356   -0.9051832817
H        1.6223630292    4.4415754019   -1.3444191801
H       -0.8261658265    4.6536471725   -1.1813037278
H       -2.9440950339    3.8362681346   -0.6070485948
H       -4.4847970154    1.9975231016   -0.0272917613
H       -4.3896718797   -2.7555037562    0.0838203947
H       -0.3800402821   -4.9731556769   -1.3156304230
H       -2.6801698320   -4.4039219458   -0.6226630774
H       -4.9187498528   -0.3334434020    0.2649093945
H        0.0992748894   -1.0311393173   -0.2184702524
H        0.4925413113   -0.1828354800    0.5017693436
H        1.2091414150   -2.2575812667    2.3421351946
42   
Interpolated frame 14 (method 5)
C       -0.7362481647   -4.0225284717   -1.0395233890
C        0.1068581061   -2.9792230631   -0.8723685142
C       -0.4260679699   -1.8867814478   -0.5060962993
C       -1.6214056790   -1.2763120674   -0.3591620436
C       -2.4488528093   -2.3399630416   -0.3694577972
C       -2.0038230214   -3.6479178233   -0.6694245019
C       -3.7395586078   -1.9778883899   -0.0489982981
C       -3.9293444451   -0.6215473364    0.0511897932
C       -3.0119985401    0.5001460988   -0.0861921338
C       -1.6598724110    0.2050162171   -0.1973390900
C       -3.4377424830    1.8203825243   -0.1535552274
C       -2.5718055381    2.8265715961   -0.4486218044
C       -1.1659616435    2.6034887464   -0.5349236938
C       -0.5563200390    1.3141719326   -0.2551654524
C       -0.3398425690    3.7170552925   -0.9174866999
C        1.0164286783    3.6329013335   -0.9924790842
C        1.6849422713    2.5144909883   -0.5432811036
C        0.9916668610    1.4121816405   -0.1092986013
C        3.1396125785    2.4188029637   -0.4467145108
C        3.9705858503    1.4715780719    0.1328984158
C        3.3368021152    0.4162103873    0.7827428193
C        2.0394293621    0.5774128612    0.5164384398
C        3.8802150956   -0.6041337812    1.5479353641
C        3.1631888054   -1.5734466764    2.1921939194
C        1.8435451854   -1.5043019268    1.8395447034
C        1.4423390653   -0.5030679884    0.9972155445
H        1.1460844425   -3.1587204826   -1.0361188447
H        4.9989077152    1.4316528871    0.1730426872
H        3.5569053562   -2.3394975627    2.8105680313
H        4.9011614794   -0.6211459120    1.6636644627
H        3.6439350011    3.2301940912   -0.8835800843
H        1.6202459737    4.4506063397   -1.3274293726
H       -0.8281832278    4.6538334844   -1.1745254164
H       -2.9430262845    3.8352472016   -0.6115278447
H       -4.4874704618    1.9972638353   -0.0445081147
H       -4.4056589502   -2.7584516356    0.0604121364
H       -0.3845764230   -4.9767646365   -1.2975988491
H       -2.6943933082   -4.4075057372   -0.6358210321
H       -4.9245624343   -0.3335655946    0.2410428050
H        0.0494768521   -1.0500667544   -0.1195873532
H        0.5458482560   -0.1693575057    0.4050705945
H        1.2385359598   -2.2770206582    2.2668254396
42   
Interpolated frame 15 (method 5)
C       -0.7496997159   -4.0276297752   -1.0079905406
C        0.0755709600   -2.9830032063   -0.7960309844
C       -0.4448280359   -1.8801631306   -0.4306576195
C       -1.6394478014   -1.2732308513   -0.3397247560
C       -2.4592112607   -2.3418106251   -0.3676654098
C       -2.0212901415   -3.6525773786   -0.6601905525
C       -3.7519043218   -1.9791358416   -0.0679755241
C       -3.9352198321   -0.6219880205    0.0303318123
C       -3.0194612400    0.5026084927   -0.0981985707
C       -1.6696697478    0.2071199289   -0.1944690354
C       -3.4411182223    1.8208075488   -0.1695427818
C       -2.5721588654    2.8257701893   -0.4564062927
C       -1.1663332246    2.6014749347   -0.5361031005
C       -0.5553640198    1.3113722556   -0.2565952113
C       -0.3404200864    3.7176981781   -0.9118769290
C        1.0159814802    3.6387113872   -0.9794379750
C        1.6867819766    2.5226606276   -0.5352133058
C        0.9970253787    1.4156901122   -0.1160757040
C        3.1411589858    2.4296325120   -0.4289806018
C        3.9775222285    1.4869854124    0.1482027018
C        3.3478285534    0.4223189938    0.7797992810
C        2.0530884850    0.5832674779    0.4961681834
C        3.8973710235   -0.5978837777    1.5391709715
C        3.1839869477   -1.5787472797    2.1654144062
C        1.8817167134   -1.5147607732    1.7684753350
C        1.4713821547   -0.5188374849    0.9265979446
H        1.1142511798   -3.1769965026   -0.9312465960
H        5.0036605246    1.4490517817    0.1973400761
H        3.5670864954   -2.3469615522    2.7838386959
H        4.9125506759   -0.6075813036    1.6695436868
H        3.6431708736    3.2446268285   -0.8557452284
H        1.6185115328    4.4592230424   -1.3060718441
H       -0.8294853251    4.6544298979   -1.1677048978
H       -2.9416058988    3.8348679463   -0.6198633610
H       -4.4902336940    1.9977105300   -0.0684912065
H       -4.4160700029   -2.7600352146    0.0331166965
H       -0.3880473632   -4.9766084648   -1.2659767948
H       -2.7101764449   -4.4089805539   -0.6432816975
H       -4.9299060707   -0.3338794078    0.2099288395
H        0.0079692781   -1.0439967126   -0.0055545986
H        0.5876784349   -0.1960891291    0.2969509991
H        1.2873574327   -2.3051310920    2.1721914901
42   
Interpolated frame 16 (method 5)
C       -0.7632160874   -4.0327565912   -0.9765065062
C        0.0441061182   -2.9868414735   -0.7197777059
C       -0.4637725171   -1.8735986823   -0.3552680212
C       -1.6575376270   -1.2701713039   -0.3203452187
C       -2.4695717693   -2.3436678150   -0.3659224340
C       -2.0387722022   -3.6572529417   -0.6510239575
C       -3.7642057026   -1.9803835564   -0.0870158477
C       -3.9410491045   -0.6224255820    0.0094275936
C       -3.0268996183    0.5050699314   -0.1102451319
C       -1.6794762471    0.2092152450   -0.1916350951
C       -3.4444605425    1.8212350526   -0.1855634084
C       -2.5724960760    2.8249693565   -0.4642096041
C       -1.1667015032    2.5994602802   -0.5372915284
C       -0.5544036447    1.3085731501   -0.2580274933
C       -0.3410090666    3.7183379408   -0.9062679021
C        1.0155051791    3.6445163720   -0.9663837567
C        1.6886027062    2.5308298677   -0.5271206559
C        1.0024002404    1.4192068586   -0.1228280778
C        3.1426629977    2.4404582450   -0.4112095375
C        3.9844181948    1.5023934741    0.1635666255
C        3.3588584603    0.4284392491    0.7769147256
C        2.0667941087    0.5891431501    0.4759529294
C        3.9145406883   -0.5916159089    1.5304851443
C        3.2048428180   -1.5840195416    2.1387097616
C        1.9200585643   -1.5251597556    1.6975100881
C        1.5006014797   -0.5345508966    0.8560552621
H        1.0821780693   -3.1953462488   -0.8264611792
H        5.0083511569    1.4664469302    0.2217009450
H        3.5773226233   -2.3544011336    2.7571597115
H        4.9239151338   -0.5940081857    1.6754997472
H        3.6423412601    3.2590500514   -0.8278725623
H        1.6167289729    4.4678305683   -1.2846975426
H       -0.8308016114    4.6550215814   -1.1608900687
H       -2.9401685759    3.8344898481   -0.6282149994
H       -4.4929463587    1.9981628295   -0.0925136516
H       -4.4264170000   -2.7616146453    0.0057568007
H       -0.3915817487   -4.9764733149   -1.2343743752
H       -2.7259348162   -4.4104619430   -0.6508098276
H       -4.9351815498   -0.3341855700    0.1787629125
H       -0.0338215289   -1.0380121127    0.1083775421
H        0.6297851059   -0.2227380599    0.1889238806
H        1.3364110203   -2.3331647198    2.0776724190
42   
Interpolated frame 17 (method 5)
C       -0.7750374928   -4.0370030689   -0.9471985066
C        0.0159742118   -2.9896214417   -0.6531004697
C       -0.4789404266   -1.8665025366   -0.2897956040
C       -1.6714610523   -1.2666205194   -0.3035317238
C       -2.4772393261   -2.3446185603   -0.3637892437
C       -2.0538692064   -3.6611328412   -0.6416909174
C       -3.7736538896   -1.9810328331   -0.1036287751
C       -3.9455937241   -0.6226450722   -0.0092337372
C       -3.0329757647    0.5072698821   -0.1213787410
C       -1.6875274611    0.2116100206   -0.1897485226
C       -3.4472007014    1.8216063915   -0.2002509266
C       -2.5728309659    2.8244456919   -0.4715381258
C       -1.1671403434    2.5981694382   -0.5386101259
C       -0.5539829739    1.3068946876   -0.2596092981
C       -0.3415744008    3.7191686448   -0.9012847524
C        1.0149724503    3.6495281537   -0.9545467953
C        1.6899058067    2.5377050383   -0.5196033130
C        1.0062058493    1.4222805964   -0.1285484703
C        3.1434668749    2.4496497982   -0.3952961990
C        3.9891325749    1.5152129830    0.1771847910
C        3.3668987564    0.4331771540    0.7739401606
C        2.0764333695    0.5929048495    0.4585074754
C        3.9293083677   -0.5863705223    1.5220202160
C        3.2233123941   -1.5890742037    2.1141226942
C        1.9541073730   -1.5340277006    1.6351740372
C        1.5245260484   -0.5492518339    0.7950219548
H        1.0529759669   -3.2111551560   -0.7357038384
H        5.0113235911    1.4808237454    0.2433044022
H        3.5868117914   -2.3614942406    2.7321023809
H        4.9336170279   -0.5821727525    1.6796452828
H        3.6413271765    3.2713962534   -0.8028465429
H        1.6151769361    4.4752253229   -1.2654343476
H       -0.8318682924    4.6558134097   -1.1548780711
H       -2.9390363256    3.8342598275   -0.6359793503
H       -4.4951384770    1.9984081205   -0.1142621724
H       -4.4341624480   -2.7627781649   -0.0180044801
H       -0.3947726246   -4.9763127205   -1.2043307874
H       -2.7395855011   -4.4114830733   -0.6557772306
H       -4.9393487393   -0.3345245343    0.1508894196
H       -0.0659145669   -1.0308483386    0.2036918791
H        0.6627742491   -0.2496135396    0.0988414745
H        1.3806038879   -2.3572663553    1.9951548999
42   
Interpolated frame 18 (method 5)
C       -0.7818874113   -4.0386800699   -0.9239694707
C       -0.0022550374   -2.9892441115   -0.6134880784
C       -0.4829256536   -1.8577579611   -0.2524369529
C       -1.6734117181   -1.2616176296   -0.2938835631
C       -2.4772374483   -2.3429654726   -0.3604258986
C       -2.0621452451   -3.6627087158   -0.6317254117
C       -3.7750829975   -1.9799791444   -0.1131814118
C       -3.9465876146   -0.6222529689   -0.0214024022
C       -3.0352287752    0.5087265570   -0.1298206609
C       -1.6905585971    0.2148775213   -0.1904744352
C       -3.4483026363    1.8218103171   -0.2110683941
C       -2.5731954945    2.8247086759   -0.4774737664
C       -1.1677871421    2.5989407840   -0.5402801627
C       -0.5551082450    1.3084048175   -0.2616128150
C       -0.3420459297    3.7205504579   -0.8980835537
C        1.0143459773    3.6522946057   -0.9462075468
C        1.6897785836    2.5408975840   -0.5137835095
C        1.0055054313    1.4240726250   -0.1313918301
C        3.1423757349    2.4541994580   -0.3847600206
C        3.9877305101    1.5206625763    0.1856900290
C        3.3664214338    0.4339515866    0.7705679023
C        2.0743875282    0.5905960636    0.4488120366
C        3.9372084271   -0.5840787690    1.5140018125
C        3.2348571156   -1.5935782747    2.0953929287
C        1.9755377033   -1.5386846522    1.5971650327
C        1.5329640380   -0.5612098180    0.7608830446
H        1.0325087303   -3.2195468538   -0.6846788430
H        5.0095492681    1.4866186379    0.2569069626
H        3.5940506215   -2.3676601468    2.7115493707
H        4.9386466933   -0.5753034562    1.6784580886
H        3.6399393145    3.2778542162   -0.7860142033
H        1.6143921298    4.4791907163   -1.2522219273
H       -0.8321914484    4.6571863832   -1.1511404751
H       -2.9388108511    3.8344473911   -0.6420377566
H       -4.4959645507    1.9980484180   -0.1294483233
H       -4.4346514974   -2.7627695434   -0.0313680711
H       -0.3968440153   -4.9760272131   -1.1786773409
H       -2.7472981738   -4.4111789021   -0.6532964632
H       -4.9405180115   -0.3349778053    0.1325087867
H       -0.0697264772   -1.0201137471    0.2462525721
H        0.6691494634   -0.2773404589    0.0596206678
H        1.4104162671   -2.3703636784    1.9465440531
42   
Interpolated frame 19 (method 5)
C       -0.7887623946   -4.0403575874   -0.9007501693
C       -0.0205314076   -2.9888674104   -0.5738979352
C       -0.4869578738   -1.8490125027   -0.2150845782
C       -1.6753744422   -1.2566153635   -0.2842426682
C       -2.4772389312   -2.3413134294   -0.3570691662
C       -2.0704310885   -3.6642862529   -0.6217752455
C       -3.7765004348   -1.9789276591   -0.1227463064
C       -3.9475673788   -0.6218631586   -0.0335837376
C       -3.0374723151    0.5101812894   -0.1382746931
C       -1.6935894012    0.2181438579   -0.1912094793
C       -3.4493924505    1.8220121245   -0.2218982170
C       -2.5735534013    2.8249700853   -0.4834187500
C       -1.1684319336    2.5997112613   -0.5419557203
C       -0.5562311776    1.3099143846   -0.2636200732
C       -0.3425208027    3.7219318189   -0.8948858287
C        1.0137102067    3.6550613524   -0.9378680282
C        1.6896446940    2.5440908427   -0.5079602243
C        1.0048085784    1.4258648050   -0.1342337962
C        3.1412720382    2.4587505868   -0.3742172789
C        3.9863174303    1.5261141196    0.1942044806
C        3.3659471936    0.4347275562    0.7672050723
C        2.0723534985    0.5882876732    0.4391201819
C        3.9451157646   -0.5817841477    1.5060057679
C        3.2464219196   -1.5980795604    2.0766890081
C        1.9970135002   -1.5433392867    1.5591904928
C        1.5414452943   -0.5731673718    0.7267604340
H        1.0119816448   -3.2279385376   -0.6336754383
H        5.0077576463    1.4924161176    0.2705212995
H        3.6013107100   -2.3738234159    2.6910184290
H        4.9436743685   -0.5684308303    1.6772924197
H        3.6385317159    3.2843139174   -0.7691747802
H        1.6135924905    4.4831567125   -1.2390081694
H       -0.8325184913    4.6585586309   -1.1474080747
H       -2.9385786976    3.8346332201   -0.6481062901
H       -4.4967736417    1.9976860415   -0.1446495757
H       -4.4351240887   -2.7627634235   -0.0447442868
H       -0.3989424562   -4.9757415266   -1.1530262643
H       -2.7550112641   -4.4108769566   -0.6508321373
H       -4.9416661661   -0.3354340032    0.1141123236
H       -0.0735938745   -1.0093776182    0.2888082081
H        0.6755777949   -0.3050680891    0.0204113170
H        1.4402876244   -2.3834582663    1.8979774781
42   
Interpolated frame 20 (method 5)
C       -0.7956626121   -4.0420356098   -0.8775406838
C       -0.0388552108   -2.9884913193   -0.5343302349
C       -0.4910374164   -1.8402661252   -0.1777385731
C       -1.6773493058   -1.2516137170   -0.2746091037
C       -2.4772437949   -2.3396624330   -0.3537190929
C       -2.0787267933   -3.6658654587   -0.6118405260
C       -3.7779061100   -1.9778783974   -0.1323235306
C       -3.9485329063   -0.6214756638   -0.0457778180
C       -3.0397063067    0.5116340605   -0.1467409163
C       -1.6966198636    0.2214090217   -0.1919537225
C       -3.4504700456    1.8222117923   -0.2327404749
C       -2.5739046283    2.8252299054   -0.4893731426
C       -1.1690746962    2.6004808623   -0.5436368425
C       -0.5573517508    1.3114233826   -0.2656311012
C       -0.3429990369    3.7233127255   -0.8916916151
C        1.0130650752    3.6578283993   -0.9295282577
C        1.6895040888    2.5472848211   -0.5021334483
C        1.0041153147    1.4276571333   -0.1370743604
C        3.1401556907    2.4633031988   -0.3636679495
C        3.9848932483    1.5315676288    0.2027281916
C        3.3654760481    0.4355050683    0.7638517383
C        2.0703313616    0.5859796703    0.4294319488
C        3.9530304076   -0.5794866424    1.4980322455
C        3.2580069224   -1.6025780503    2.0580111411
C        2.0185350492   -1.5479916081    1.5212507108
C        1.5499701099   -0.5851245171    0.6926542921
H        0.9913943128   -3.2363301767   -0.5826938174
H        5.0059485920    1.4982162084    0.2841474706
H        3.6085921848   -2.3799840412    2.6705097428
H        4.9487000148   -0.5615548518    1.6761484203
H        3.6371042358    3.2907753769   -0.7523282562
H        1.6127779158    4.4871233217   -1.2257930928
H       -0.8328494394    4.6599301488   -1.1436809223
H       -2.9383398045    3.8348172989   -0.6541850247
H       -4.4975656142    1.9973209635   -0.1598660239
H       -4.4355800970   -2.7627598294   -0.0581331939
H       -0.4010681395   -4.9754556409   -1.1273775890
H       -2.7627247634   -4.4105772524   -0.6483843592
H       -4.9427930398   -0.3358931590    0.0956999403
H       -0.0775171489   -0.9986399059    0.3313586904
H        0.6820596178   -0.3327964657   -0.0187864190
H        1.4702183341   -2.3965501235    1.8494555598
42   
Interpolated frame 21 (method 5)
C       -0.8025882345   -4.0437141249   -0.8543410966
C       -0.0572267613   -2.9881158189   -0.4947851741
C       -0.4951646137   -1.8315187917   -0.1403990326
C       -1.6793363906   -1.2466126859   -0.2649829349
C       -2.4772520598   -2.3380124857   -0.3503757250
C       -2.0870324165   -3.6674463394   -0.6019213615
C       -3.7792999312   -1.9768313799   -0.1419131564
C       -3.9494840854   -0.6210905073   -0.0579847187
C       -3.0419306712    0.5130848511   -0.1552194101
C       -1.6996499744    0.2246730036   -0.1927072330
C       -3.4515353217    1.8224092991   -0.2435952483
C       -2.5742491166    2.8254881217   -0.4953370111
C       -1.1697154081    2.6012495791   -0.5453235731
C       -0.5584699441    1.3129318052   -0.2676459279
C       -0.3434806491    3.7246931752   -0.8885009508
C        1.0124105194    3.6605957522   -0.9211882534
C        1.6893567185    2.5504795262   -0.4963031721
C        1.0034256648    1.4294496064   -0.1399135142
C        3.1390265973    2.4678573086   -0.3531120083
C        3.9834578759    1.5370231201    0.2112612079
C        3.3650080100    0.4362841283    0.7605079688
C        2.0683211991    0.5836720466    0.4197473755
C        3.9609523836   -0.5771862370    1.4900814100
C        3.2696122406   -1.6070737341    2.0393595388
C        2.0401026387   -1.5526416207    1.4833459832
C        1.5585387797   -0.5970812765    0.6585647896
H        0.9707463329   -3.2447217395   -0.5317341755
H        5.0041219697    1.5040189340    0.2977855334
H        3.6158951748   -2.3861420162    2.6500235009
H        4.9537235927   -0.5546754977    1.6750262359
H        3.6356567279    3.2972386147   -0.7354746140
H        1.6119483022    4.4910905547   -1.2125767167
H       -0.8331843108    4.6613009334   -1.1399590706
H       -2.9380941109    3.8349996121   -0.6602740351
H       -4.4983403309    1.9969531564   -0.1750977628
H       -4.4360193961   -2.7627587856   -0.0715348599
H       -0.4032212590   -4.9751695353   -1.1017313471
H       -2.7704386627   -4.4102798053   -0.6459532359
H       -4.9438984678   -0.3363553040    0.0772715461
H       -0.0814966943   -0.9879005636    0.3739039206
H        0.6885953094   -0.3605256252   -0.0579723789
H        1.5002087734   -2.4096392546    1.8009786877
42   
Interpolated frame 22 (method 5)
C       -0.8094362497   -4.0449118050   -0.8277588771
C       -0.0753588978   -2.9868088824   -0.4555356484
C       -0.4976352960   -1.8225714990   -0.1051560080
C       -1.6788799590   -1.2413481439   -0.2554606055
C       -2.4758064635   -2.3357508457   -0.3461231389
C       -2.0949166920   -3.6684518743   -0.5901484408
C       -3.7791284914   -1.9754912185   -0.1514763526
C       -3.9495623490   -0.6207950841   -0.0708415919
C       -3.0432160709    0.5141216862   -0.1644910620
C       -1.7014599798    0.2282040768   -0.1941251317
C       -3.4521161095    1.8222616175   -0.2553971915
C       -2.5745888589    2.8258415897   -0.5018475443
C       -1.1704660534    2.6026522340   -0.5469759458
C       -0.5599918549    1.3154948010   -0.2696351194
C       -0.3440933553    3.7265333733   -0.8846611964
C        1.0115151651    3.6633992473   -0.9116506091
C        1.6887967490    2.5534332788   -0.4892865020
C        1.0017120411    1.4313090825   -0.1418156784
C        3.1372832121    2.4720849556   -0.3415828164
C        3.9807699539    1.5416083809    0.2201155040
C        3.3628944363    0.4362763940    0.7563631147
C        2.0643010430    0.5799906133    0.4103006581
C        3.9681409651   -0.5754266165    1.4802407177
C        3.2807542379   -1.6124102771    2.0171178954
C        2.0604654008   -1.5563191100    1.4448873957
C        1.5642999595   -0.6086847765    0.6258007896
H        0.9496817419   -3.2519372997   -0.4812744661
H        5.0011919766    1.5086662575    0.3116794112
H        3.6238427785   -2.3937882967    2.6245143733
H        4.9581662157   -0.5486922327    1.6717435652
H        3.6337192061    3.3034438328   -0.7172121006
H        1.6109946480    4.4950231500   -1.1979265249
H       -0.8335180278    4.6631101100   -1.1356641207
H       -2.9380646949    3.8351531894   -0.6669089185
H       -4.4986799685    1.9959843062   -0.1915584051
H       -4.4349218736   -2.7626749081   -0.0847827811
H       -0.4059377658   -4.9749622909   -1.0710910782
H       -2.7777208271   -4.4095397444   -0.6412242000
H       -4.9442122065   -0.3370888511    0.0577084377
H       -0.0790944387   -0.9773556022    0.4093327255
H        0.6904068666   -0.3883721649   -0.0903252291
H        1.5298698867   -2.4212106528    1.7521326963
42   
Interpolated frame 23 (method 5)
C       -0.8162703992   -4.0459119505   -0.7997880076
C       -0.0934175081   -2.9851192004   -0.4164203888
C       -0.4994456144   -1.8135419567   -0.0707788429
C       -1.6774222751   -1.2359752639   -0.2459822347
C       -2.4737642883   -2.3332375450   -0.3414983857
C       -2.1026348407   -3.6692213832   -0.5776202986
C       -3.7783049994   -1.9740312643   -0.1610347684
C       -3.9492717739   -0.6205378799   -0.0839737044
C       -3.0441077753    0.5149868021   -0.1740960593
C       -1.7027656926    0.2318446782   -0.1958207578
C       -3.4524889722    1.8219704499   -0.2675967624
C       -2.5749221737    2.8262334389   -0.5085891301
C       -1.1712610308    2.6043158140   -0.5486173675
C       -0.5616791452    1.3184923104   -0.2716163737
C       -0.3447629114    3.7285629227   -0.8805554138
C        1.0105136805    3.6662178286   -0.9016183159
C        1.6880612080    2.5562881164   -0.4817782148
C        0.9995766655    1.4331962990   -0.1433315660
C        3.1352780741    2.4761787959   -0.3296479527
C        3.9775587941    1.5458357948    0.2291073450
C        3.3601048923    0.4359450490    0.7518920397
C        2.0594581872    0.5757429096    0.4009518918
C        3.9750333177   -0.5738881739    1.4696333654
C        3.2917208977   -1.6180916362    1.9934102682
C        2.0803565378   -1.5595934430    1.4062180193
C        1.5689251419   -0.6201418728    0.5935884775
H        0.9284135386   -3.2586691994   -0.4310337709
H        4.9977968855    1.5128384711    0.3256858429
H        3.6320745856   -2.4020463883    2.5969479350
H        4.9623706769   -0.5430765133    1.6675828676
H        3.6315666349    3.3095435991   -0.6983634667
H        1.6099796538    4.4989418217   -1.1826831627
H       -0.8338542058    4.6650996847   -1.1311352660
H       -2.9381199435    3.8352939030   -0.6737752591
H       -4.4988289386    1.9947661479   -0.2085347955
H       -4.4331814921   -2.7625580976   -0.0979740428
H       -0.4089079655   -4.9747879130   -1.0383945133
H       -2.7848279866   -4.4086185698   -0.6355576933
H       -4.9441860585   -0.3379358702    0.0376680132
H       -0.0740808914   -0.9668901911    0.4418335589
H        0.6902899962   -0.4162670536   -0.1198613539
H        1.5594275139   -2.4321534706    1.7031582448
42   
Interpolated frame 24 (method 5)
C       -0.8231339583   -4.0469131132   -0.7718275993
C       -0.1115209035   -2.9834312699   -0.3773269511
C       -0.5012977765   -1.8045123331   -0.0364053594
C       -1.6759759370   -1.2306029508   -0.2365075585
C       -2.4717266403   -2.3307252480   -0.3368790024
C       -2.1103650948   -3.6699928583   -0.5651079110
C       -3.7774699592   -1.9725733035   -0.1706043041
C       -3.9489661713   -0.6202828542   -0.0971183657
C       -3.0449887506    0.5158500828   -0.1837123333
C       -1.7040699021    0.2354841878   -0.1975237516
C       -3.4528483233    1.8216772435   -0.2798085996
C       -2.5752480746    2.8266237212   -0.5153403507
C       -1.1720541742    2.6059785435   -0.5502643589
C       -0.5633643868    1.3214892276   -0.2736019368
C       -0.3454368231    3.7305920591   -0.8764526854
C        1.0095011564    3.6690367247   -0.8915850310
C        1.6873171171    2.5591437080   -0.4742660058
C        0.9974430088    1.4350836889   -0.1448471239
C        3.1332589395    2.4802740698   -0.3177058957
C        3.9743361369    1.5500650125    0.2381080800
C        3.3573193602    0.4356151645    0.7474288389
C        2.0546263499    0.5714955854    0.3916041417
C        3.9819352643   -0.5723466737    1.4590480920
C        3.3027124874   -1.6237698539    1.9697279459
C        2.1002919010   -1.5628645453    1.3675805278
C        1.5735897530   -0.6315979975    0.5613875004
H        0.9070886681   -3.2654025566   -0.3808152419
H        4.9943842979    1.5170130852    0.3397043432
H        3.6403348625   -2.4103014105    2.5694050295
H        4.9665761073   -0.5374574143    1.6634442308
H        3.6293924062    3.3156450466   -0.6795065259
H        1.6089478866    4.5028611192   -1.1674371443
H       -0.8341950801    4.6670885857   -1.1266109501
H       -2.9381676992    3.8354328597   -0.6806523511
H       -4.4989591575    1.9935453937   -0.2255266186
H       -4.4314250392   -2.7624435401   -0.1111772613
H       -0.4119120471   -4.9746138595   -1.0057023068
H       -2.7919388251   -4.4076997602   -0.6299083427
H       -4.9441372784   -0.3387856785    0.0176114557
H       -0.0691090553   -0.9564235277    0.4743403821
H        0.6902132704   -0.4441621468   -0.1493948109
H        1.5890420839   -2.4430922140    1.6542261095
42   
Interpolated frame 25 (method 5)
C       -0.8300271599   -4.0479152921   -0.7438777588
C       -0.1296694329   -2.9817450967   -0.3382555520
C       -0.5031921271   -1.7954826122   -0.0020356287
C       -1.6745410377   -1.2252312032   -0.2270366192
C       -2.4696935541   -2.3282139582   -0.3322650355
C       -2.1181075406   -3.6707663128   -0.5526114128
C       -3.7766232678   -1.9711173539   -0.1801850384
C       -3.9486454068   -0.6200300283   -0.1102756645
C       -3.0458588986    0.5167115104   -0.1933399680
C       -1.7053725909    0.2391225961   -0.1992341748
C       -3.4531940396    1.8213819780   -0.2920327935
C       -2.5755664902    2.8270124217   -0.5221012821
C       -1.1728454626    2.6076404142   -0.5519169683
C       -0.5650475596    1.3244855459   -0.2755918455
C       -0.3461151219    3.7326207795   -0.8723530462
C        1.0084775025    3.6718559405   -0.8815507630
C        1.6865644028    2.5620000608   -0.4667498557
C        0.9953110845    1.4369712509   -0.1463623507
C        3.1312256864    2.4843707908   -0.3057566049
C        3.9711018787    1.5542960489    0.2471177668
C        3.3545378660    0.4352867475    0.7429735801
C        2.0498056227    0.5672486360    0.3822574281
C        3.9888468617   -0.5708020931    1.4484850870
C        3.3137291893   -1.6294449097    1.9460711640
C        2.1202718235   -1.5661323978    1.3289752269
C        1.5782941103   -0.6430531555    0.5291979948
H        0.8857066887   -3.2721373720   -0.3306191041
H        4.9909540582    1.5211901209    0.3537349904
H        3.6486238229   -2.4185533460    2.5418858841
H        4.9707824910   -0.5318349095    1.6593278342
H        3.6271963338    3.3217481932   -0.6606412379
H        1.6078992075    4.5067810514   -1.1521884716
H       -0.8345406828    4.6690768087   -1.1220912219
H       -2.9382078885    3.8355700431   -0.6875402809
H       -4.4990704556    1.9923220171   -0.2425339860
H       -4.4296523737   -2.7623312561   -0.1243925162
H       -0.4149502870   -4.9744401200   -0.9730145189
H       -2.7990533599   -4.4067833345   -0.6242762866
H       -4.9440656658   -0.3396383046   -0.0024613453
H       -0.0641792831   -0.9459555835    0.5068532012
H        0.6901770290   -0.4720574602   -0.1789255246
H        1.6187140273   -2.4540268559    1.6053366988
42   
Interpolated frame 26 (method 5)
C       -0.8372108546   -4.0480229022   -0.7103025019
C       -0.1478939293   -2.9787122974   -0.2961197819
C       -0.5038740460   -1.7856596313    0.0331268332
C       -1.6713143794   -1.2196659012   -0.2166781357
C       -2.4665219837   -2.3250960006   -0.3264845956
C       -2.1257230521   -3.6706657687   -0.5376323399
C       -3.7744949188   -1.9695167826   -0.1905194623
C       -3.9474978280   -0.6200049596   -0.1250479775
C       -3.0458782245    0.5170885939   -0.2042861748
C       -1.7056784766    0.2428999979   -0.2013930722
C       -3.4530180232    1.8206316295   -0.3059956889
C       -2.5758130339    2.8273885738   -0.5297821300
C       -1.1737190924    2.6097700689   -0.5535048217
C       -0.5670460384    1.3282721887   -0.2775249120
C       -0.3469793582    3.7350908226   -0.8671783424
C        1.0071167683    3.6748652277   -0.8695171257
C        1.6853861308    2.5647690749   -0.4575419025
C        0.9923751243    1.4388310901   -0.1471327642
C        3.1285568810    2.4884176553   -0.2919189627
C        3.9668788560    1.5580485762    0.2571017826
C        3.3504658302    0.4343012910    0.7373288012
C        2.0436867276    0.5617699175    0.3721282335
C        3.9951758262   -0.5696949143    1.4351559041
C        3.3247125506   -1.6362746432    1.9164856014
C        2.1394256855   -1.5690783868    1.2866996702
C        1.5808511443   -0.6544741139    0.4954904279
H        0.8632852624   -3.2778115164   -0.2755139797
H        4.9865720115    1.5246691250    0.3690097068
H        3.6582328534   -2.4287283311    2.5065257340
H        4.9744548473   -0.5269429222    1.6527800937
H        3.6243308566    3.3280611384   -0.6388709362
H        1.6065487971    4.5109630273   -1.1342328807
H       -0.8349810526    4.6715059556   -1.1164782576
H       -2.9383486073    3.8355886976   -0.6954119776
H       -4.4986699615    1.9903749685   -0.2620333213
H       -4.4265462549   -2.7622923301   -0.1385910650
H       -0.4190356158   -4.9740128216   -0.9325667753
H       -2.8059194719   -4.4052023972   -0.6163769362
H       -4.9431869178   -0.3408996724   -0.0252269186
H       -0.0550987757   -0.9358044053    0.5371710267
H        0.6873683061   -0.4999874026   -0.2063575146
H        1.6490254374   -2.4647595197    1.5512174395
42   
Interpolated frame 27 (method 5)
C       -0.8444816535   -4.0479589498   -0.6756408047
C       -0.1661732842   -2.9754210623   -0.2534049782
C       -0.5043546314   -1.7756838577    0.0684422384
C       -1.6677485491   -1.2140638097   -0.2061483457
C       -2.4631332607   -2.3218609826   -0.3204816452
C       -2.1333262100   -3.6703975859   -0.5221841633
C       -3.7721059390   -1.9678893700   -0.2010111539
C       -3.9461744642   -0.6200256833   -0.1401471558
C       -3.0457210239    0.5173700557   -0.2154994616
C       -1.7057881427    0.2467036501   -0.2036449749
C       -3.4527268998    1.8197912896   -0.3203088607
C       -2.5760382805    2.8277611709   -0.5376511570
C       -1.1746074011    2.6119902574   -0.5550847453
C       -0.5691045563    1.3322124628   -0.2794506715
C       -0.3478847653    3.7376464018   -0.8617959469
C        1.0056787633    3.6779114439   -0.8570915321
C        1.6841156471    2.5675214436   -0.4479995112
C        0.9892826763    1.4406857369   -0.1477576060
C        3.1257500916    2.4924555995   -0.2777051299
C        3.9624520091    1.5617090407    0.2672850200
C        3.3461465058    0.4331893177    0.7314591304
C        2.0373246156    0.5560518387    0.3618468197
C        4.0014017084   -0.5686694611    1.4213071873
C        3.3357166315   -1.6433250347    1.8857660176
C        2.1584584773   -1.5719562993    1.2437341836
C        1.5830233875   -0.6658858044    0.4614935091
H        0.8406092407   -3.2832835399   -0.2194715805
H        4.9819880768    1.5280135792    0.3845395470
H        3.6681317791   -2.4392734602    2.4696589248
H        4.9780259655   -0.5221898827    1.6457790616
H        3.6213132858    3.3344156950   -0.6165246788
H        1.6051224634    4.5151960436   -1.1157452918
H       -0.8354450504    4.6740203273   -1.1106552586
H       -2.9385014782    3.8355829490   -0.7034854699
H       -4.4981510287    1.9882852468   -0.2820331435
H       -4.4231653078   -2.7622691459   -0.1529929893
H       -0.4233617104   -4.9735387009   -0.8906123372
H       -2.8127422726   -4.4034946452   -0.6080519879
H       -4.9421286650   -0.3422423523   -0.0485331342
H       -0.0452402240   -0.9257151178    0.5670715192
H        0.6840494639   -0.5279229556   -0.2333830097
H        1.6795140105   -2.4754458490    1.4961135663
42   
Interpolated frame 28 (method 5)
C       -0.8517896448   -4.0478982721   -0.6409919618
C       -0.1845023019   -2.9721345978   -0.2107133069
C       -0.5048790729   -1.7657101333    0.1037553355
C       -1.6641953709   -1.2084628293   -0.1956209678
C       -2.4597504281   -2.3186274423   -0.3144848090
C       -2.1409445094   -3.6701327079   -0.5067544499
C       -3.7697037035   -1.9662637027   -0.2115155650
C       -3.9448331752   -0.6200482035   -0.1552610421
C       -3.0455507741    0.5176499873   -0.2267251235
C       -1.7058955767    0.2505062279   -0.2059039183
C       -3.4524193499    1.8189493102   -0.3346359322
C       -2.5762545708    2.8281323502   -0.5455310759
C       -1.1754939578    2.6142095905   -0.5566705394
C       -0.5711612261    1.3361521388   -0.2813811292
C       -0.3487961225    3.7402013603   -0.8564160776
C        1.0042266709    3.6809575553   -0.8446635269
C        1.6828339276    2.5702743312   -0.4384516350
C        0.9861907649    1.4425406371   -0.1483820339
C        3.1229260686    2.4964946063   -0.2634816376
C        3.9580115761    1.5653710966    0.2774795184
C        3.3418324671    0.4320792810    0.7255982138
C        2.0309747968    0.5503347039    0.3515659419
C        4.0076403468   -0.5676397074    1.4074830896
C        3.3467537614   -1.6503700951    1.8550738935
C        2.1775408021   -1.5748279644    1.2008010732
C        1.5852378956   -0.6772945262    0.4275053908
H        0.8178690142   -3.2887609066   -0.1634539512
H        4.9773840001    1.5313600504    0.4000846765
H        3.6780700008   -2.4498128971    2.4328196095
H        4.9816003551   -0.5174325754    1.6388036820
H        3.6182692557    3.3407712394   -0.5941669554
H        1.6036752190    4.5194290810   -1.0972528065
H       -0.8359152968    4.6765337894   -1.1048362946
H       -2.9386451966    3.8355755573   -0.7115712783
H       -4.4976092087    1.9861934736   -0.3020509204
H       -4.4197660262   -2.7622478270   -0.1674092020
H       -0.4277323112   -4.9730674883   -0.8486655469
H       -2.8195711583   -4.4017902236   -0.5997473505
H       -4.9410432125   -0.3435871602   -0.0718584858
H       -0.0354213815   -0.9156257918    0.5969844510
H        0.6807692296   -0.5558572915   -0.2604111180
H        1.7100674239   -2.4861240245    1.4410537659
42   
Interpolated frame 29 (method 5)
C       -0.8593212758   -4.0467275269   -0.6008917458
C       -0.2024453573   -2.9674625691   -0.1644186123
C       -0.5043887084   -1.7546341673    0.1405503391
C       -1.6593125105   -1.2026471378   -0.1840239388
C       -2.4554273603   -2.3148206217   -0.3073832008
C       -2.1482516763   -3.6688699807   -0.4890233616
C       -3.7661942404   -1.9645739600   -0.2227744121
C       -3.9427494916   -0.6203058756   -0.1719329262
C       -3.0446569534    0.5175200458   -0.2391473427
C       -1.7052380260    0.2543715130   -0.2084203754
C       -3.4516264506    1.8177057740   -0.3506209875
C       -2.5763600513    2.8284506117   -0.5542916866
C       -1.1764249429    2.6167236531   -0.5582110671
C       -0.5734378680    1.3405891092   -0.2832750741
C       -0.3498806718    3.7430730314   -0.8500412364
C        1.0024487794    3.6841475461   -0.8303868181
C        1.6811644465    2.5729069197   -0.4274293795
C        0.9824876369    1.4442541365   -0.1485318158
C        3.1195345395    2.5004687569   -0.2474950148
C        3.9527594676    1.5686002543    0.2886005115
C        3.3364489387    0.4304135550    0.7185707288
C        2.0236610022    0.5435902135    0.3402802072
C        4.0131553326   -0.5670433189    1.3910396379
C        3.3577518061   -1.6584617882    1.8186476460
C        2.1956549993   -1.5780434529    1.1539508264
C        1.5857148024   -0.6888263519    0.3915324946
H        0.7945412967   -3.2929601752   -0.1013113425
H        4.9719776070    1.5341117957    0.4168540698
H        3.6894123112   -2.4619309503    2.3884378383
H        4.9845403311   -0.5133474674    1.6296091204
H        3.6145896779    3.3473184050   -0.5690040986
H        1.6018966005    4.5239073067   -1.0761569911
H       -0.8364990746    4.6793814219   -1.0979533543
H       -2.9387988576    3.8354369258   -0.7206271331
H       -4.4965613294    1.9834781157   -0.3245049268
H       -4.4152014522   -2.7623465344   -0.1828442359
H       -0.4332461696   -4.9721156907   -0.7992593042
H       -2.8259873024   -4.3993536212   -0.5894466446
H       -4.9391989034   -0.3453436493   -0.0978236419
H       -0.0232368842   -0.9055005554    0.6269067869
H        0.6758036446   -0.5837958844   -0.2875078133
H        1.7409023380   -2.4973378121    1.3797582746
42   
Interpolated frame 30 (method 5)
C       -0.8669679842   -4.0451305817   -0.5586897277
C       -0.2202727022   -2.9622585915   -0.1167421442
C       -0.5035331937   -1.7431337358    0.1779189410
C       -1.6539233940   -1.1967493220   -0.1720135929
C       -2.4507447249   -2.3107930801   -0.2998582568
C       -2.1554496719   -3.6672237551   -0.4704137180
C       -3.7622467611   -1.9628603421   -0.2343345506
C       -3.9403653677   -0.6206554658   -0.1892189017
C       -3.0434734204    0.5172306663   -0.2520414403
C       -1.7042824838    0.2582604619   -0.2110407543
C       -3.4506335435    1.8163060141   -0.3672579308
C       -2.5764160709    2.8287476092   -0.5634010095
C       -1.1773721523    2.6193512975   -0.5597378813
C       -0.5757987494    1.3452182574   -0.2851579537
C       -0.3510370730    3.7460667877   -0.8432822752
C        1.0005339983    3.6873928688   -0.8153916779
C        1.6793361433    2.5754930499   -0.4158316514
C        0.9785473821    1.4459130391   -0.1484973206
C        3.1159105041    2.5044182024   -0.2308177586
C        3.9471833639    1.5716626685    0.3000891866
C        3.3306554186    0.4285342123    0.7110977382
C        2.0159823747    0.5364488695    0.3286057455
C        4.0184001842   -0.5666112583    1.3735982648
C        3.3687610220   -1.6669538687    1.7800189221
C        2.2134280344   -1.5813865788    1.1056025591
C        1.5855461837   -0.7004029969    0.3547944789
H        0.7709404215   -3.2966701811   -0.0368122586
H        4.9662465234    1.5366343212    0.4341095838
H        3.7013305996   -2.4746546215    2.3411553377
H        4.9872384289   -0.5095193471    1.6195731907
H        3.6106444649    3.3539399095   -0.5427455035
H        1.5999739354    4.5284800469   -1.0540484070
H       -0.8371318001    4.6823576992   -1.0906605730
H       -2.9389495594    3.8352465405   -0.7300674136
H       -4.4953005375    1.9805204083   -0.3479153713
H       -4.4101729062   -2.7624926676   -0.1986845038
H       -0.4392378993   -4.9709816862   -0.7469718091
H       -2.8322489978   -4.3966362207   -0.5783871951
H       -4.9370408901   -0.3472604174   -0.1248251504
H       -0.0101599828   -0.8953618976    0.6568434492
H        0.6702086485   -0.6117347608   -0.3146353896
H        1.7718922344   -2.5087515535    1.3160747232
42   
Interpolated frame 31 (method 5)
C       -0.8746654978   -4.0431558841   -0.5148839265
C       -0.2378649367   -2.9566411513   -0.0679147298
C       -0.5024208817   -1.7312492821    0.2157852617
C       -1.6481987083   -1.1907671283   -0.1596673002
C       -2.4457994251   -2.3065906999   -0.2920023256
C       -2.1624809953   -3.6652541435   -0.4511290861
C       -3.7579636858   -1.9611400499   -0.2460976762
C       -3.9377470306   -0.6210756935   -0.2069520224
C       -3.0420758220    0.5168341904   -0.2652747522
C       -1.7031265835    0.2621629319   -0.2137155749
C       -3.4494837698    1.8147972456   -0.3843810843
C       -2.5764239984    2.8290239569   -0.5727753198
C       -1.1783258038    2.6220423623   -0.5612614204
C       -0.5782115085    1.3499541527   -0.2870398211
C       -0.3522490786    3.7491345603   -0.8362459697
C        0.9985100148    3.6906685057   -0.7998764054
C        1.6773837227    2.5780304783   -0.4038334965
C        0.9744450117    1.4475126443   -0.1483655936
C        3.1121081857    2.5083299957   -0.2136438674
C        3.9413664734    1.5745746927    0.3118338024
C        3.3245599543    0.4264923491    0.7032772192
C        2.0080449228    0.5290277810    0.3166049676
C        4.0233775989   -0.5663450491    1.3553994894
C        3.3797549532   -1.6757549987    1.7397232647
C        2.2308785803   -1.5850062296    1.0560734063
C        1.5849281362   -0.7120394960    0.3174466987
H        0.7472996038   -3.2998192725    0.0297293672
H        4.9602727981    1.5389655014    0.4517059245
H        3.7137100054   -2.4877800442    2.2916806435
H        4.9897085198   -0.5059197352    1.6088928301
H        3.6064923669    3.3605936494   -0.5156776337
H        1.5979283495    4.5331143154   -1.0311878942
H       -0.8378070701    4.6854157208   -1.0830627395
H       -2.9390799376    3.8350157545   -0.7398055861
H       -4.4938644210    1.9773937520   -0.3720475720
H       -4.4047894927   -2.7626818360   -0.2148008037
H       -0.4456252717   -4.9696569311   -0.6924978330
H       -2.8383201073   -4.3936894654   -0.5667382652
H       -4.9346294696   -0.3493041001   -0.1525953751
H        0.0033503659   -0.8850871768    0.6870596947
H        0.6642350342   -0.6396722954   -0.3420666531
H        1.8027988985   -2.5204538773    1.2503281576
42   
Interpolated frame 32 (method 5)
C       -0.8824359085   -4.0395852260   -0.4643274457
C       -0.2543018981   -2.9492732074   -0.0142020214
C       -0.5000888613   -1.7177484536    0.2557359866
C       -1.6410271442   -1.1844272830   -0.1459108698
C       -2.4397340078   -2.3016513431   -0.2827405253
C       -2.1687597594   -3.6619186592   -0.4289578485
C       -3.7523247809   -1.9593868435   -0.2586634897
C       -3.9342145739   -0.6217864681   -0.2265007300
C       -3.0398309601    0.5159940663   -0.2798827992
C       -1.7011417600    0.2661252363   -0.2165955668
C       -3.4477383401    1.8128369116   -0.4034872970
C       -2.5762635317    2.8292180852   -0.5832189125
C       -1.1793117649    2.6250013297   -0.5627517380
C       -0.5808464974    1.3551382458   -0.2889017144
C       -0.3536703765    3.7525143968   -0.8280437023
C        0.9960823603    3.6940724742   -0.7821985477
C        1.6749549957    2.5803634583   -0.3901833952
C        0.9696658069    1.4488635443   -0.1478295831
C        3.1076240171    2.5120820412   -0.1944319435
C        3.9345918937    1.5768534329    0.3246051006
C        3.3171821669    0.4237635034    0.6939727714
C        1.9989824679    0.5204327924    0.3032384121
C        4.0271882607   -0.5667892569    1.3339500176
C        3.3905577890   -1.6858714323    1.6923665011
C        2.2468087084   -1.5898087603    1.0015051788
C        1.5822886886   -0.7239400446    0.2775277212
H        0.7237206621   -3.3005969578    0.1048918359
H        4.9533560356    1.5404911802    0.4706685930
H        3.7278624912   -2.5026112920    2.2329432075
H        4.9912092700   -0.5032916309    1.5954276456
H        3.6015725995    3.3673809261   -0.4852724405
H        1.5954466285    4.5380075074   -1.0052059575
H       -0.8386360366    4.6888191171   -1.0741780720
H       -2.9391590535    3.8346209820   -0.7507452525
H       -4.4917795426    1.9735658543   -0.3991319886
H       -4.3979874686   -2.7630457872   -0.2320180254
H       -0.4534960815   -4.9675175029   -0.6288503512
H       -2.8435695096   -4.3897706144   -0.5525527493
H       -4.9312578422   -0.3518733245   -0.1835089471
H        0.0187995275   -0.8742416144    0.7183935452
H        0.6565545256   -0.6676107729   -0.3707493061
H        1.8331268043   -2.5333986109    1.1758147038
42   
Interpolated frame 33 (method 5)
C       -0.8902136511   -4.0357258874   -0.4126450042
C       -0.2704908264   -2.9416204058    0.0403873396
C       -0.4976024170   -1.7039559590    0.2960650233
C       -1.6336517478   -1.1780141593   -0.1319063848
C       -2.4334943138   -2.2965879878   -0.2732302571
C       -2.1748685650   -3.6583525288   -0.4062853549
C       -3.7464509774   -1.9576363560   -0.2713459379
C       -3.9305128248   -0.6225469860   -0.2463480392
C       -3.0374398159    0.5150886432   -0.2947188462
C       -1.6990332696    0.2700987684   -0.2195024091
C       -3.4458784638    1.8108068795   -0.4229316779
C       -2.5760626836    2.8293965112   -0.5938514435
C       -1.1803000150    2.6279950618   -0.5642463685
C       -0.5835128314    1.3603809524   -0.2907694560
C       -0.3551330548    3.7559375941   -0.8196575918
C        0.9935722824    3.6974932889   -0.7641721665
C        1.6724363395    2.5826586964   -0.3762744833
C        0.9647822122    1.4501696109   -0.1472500160
C        3.1030120429    2.5157971319   -0.1748916403
C        3.9276515040    1.5790107042    0.3375344255
C        3.3096031096    0.4209144246    0.6844131834
C        1.9897500384    0.5116551583    0.2896267362
C        4.0307857839   -0.5673948768    1.3119598233
C        3.4013348016   -1.6962209472    1.6438568363
C        2.2624902549   -1.5949257362    0.9460751581
C        1.5793717311   -0.7358979870    0.2371677920
H        0.7002501612   -3.3008014874    0.1815925870
H        4.9462710530    1.5418708762    0.4898446895
H        3.7423375316   -2.5176938611    2.1727095592
H        4.9925334666   -0.5008619700    1.5814967339
H        3.5965014162    3.3741768337   -0.4543177609
H        1.5928664430    4.5429393900   -0.9787099658
H       -0.8394995700    4.6922720696   -1.0650869447
H       -2.9392125306    3.8341982109   -0.7619003980
H       -4.4895603699    1.9696293274   -0.4267212246
H       -4.3909366863   -2.7634441336   -0.2493974837
H       -0.4616534503   -4.9652112406   -0.5636978501
H       -2.8486385648   -4.3856949037   -0.5379207913
H       -4.9276960848   -0.3545336149   -0.2149471437
H        0.0344464040   -0.8632080319    0.7500148926
H        0.6486344712   -0.6955497975   -0.3997493435
H        1.8632116669   -2.5466112756    1.0997312038
42   
Interpolated frame 34 (method 5)
C       -0.8977328146   -4.0296513019   -0.3523658834
C       -0.2844451173   -2.9317747337    0.1017249048
C       -0.4936595033   -1.6879411689    0.3392502928
C       -1.6246450244   -1.1710382065   -0.1160194926
C       -2.4258891121   -2.2905752037   -0.2617950533
C       -2.1795704193   -3.6530160205   -0.3796984246
C       -3.7389027220   -1.9558950414   -0.2848099010
C       -3.9256732213   -0.6236719792   -0.2683318715
C       -3.0340473955    0.5136992076   -0.3111835605
C       -1.6960102931    0.2741638595   -0.2225667077
C       -3.4432859311    1.8082601900   -0.4448208167
C       -2.5756286590    2.8294658674   -0.6058249434
C       -1.1813159159    2.6312576201   -0.5657306014
C       -0.5864254635    1.3660708251   -0.2926471189
C       -0.3568556168    3.7596939221   -0.8098688931
C        0.9905568267    3.7010442346   -0.7435408256
C        1.6693331229    2.5846665872   -0.3604601687
C        0.9591164775    1.4511356159   -0.1463466076
C        3.0975733510    2.5192269617   -0.1529583350
C        3.9195632600    1.5802395593    0.3515584033
C        3.3004586541    0.4171410072    0.6728583218
C        1.9791437121    0.5014888933    0.2741575677
C        4.0326624812   -0.5692549860    1.2857140741
C        3.4116252574   -1.7083800756    1.5864493420
C        2.2759346438   -1.6024691185    0.8839483912
C        1.5740735529   -0.7483144286    0.1934452123
H        0.6781003223   -3.2966252384    0.2700566573
H        4.9380655092    1.5421341175    0.5104986122
H        3.7588880987   -2.5347331245    2.1009542539
H        4.9924794105   -0.4999659843    1.5638564883
H        3.5904990913    3.3810337803   -0.4193177129
H        1.5897143655    4.5481662157   -0.9483821363
H       -0.8405692928    4.6961071825   -1.0544108238
H       -2.9391475559    3.8335753677   -0.7745839593
H       -4.4865125040    1.9648844656   -0.4579782542
H       -4.3821435913   -2.7640900979   -0.2678852116
H       -0.4715840502   -4.9616066341   -0.4870987748
H       -2.8522846329   -4.3804067407   -0.5197698921
H       -4.9229144764   -0.3578694409   -0.2501917541
H        0.0518349049   -0.8507533583    0.7836951595
H        0.6386618496   -0.7235036801   -0.4311020499
H        1.8909584209   -2.5619189165    1.0115220930
42   
Interpolated frame 35 (method 5)
C       -0.9049329812   -4.0222190752   -0.2871512394
C       -0.2968213671   -2.9206894866    0.1672151416
C       -0.4889671497   -1.6706019395    0.3842318716
C       -1.6148243700   -1.1637056993   -0.0989558368
C       -2.4175541024   -2.2840285424   -0.2491165063
C       -2.1832981690   -3.6467025785   -0.3506329224
C       -3.7304393467   -1.9541900606   -0.2985817676
C       -3.9201952040   -0.6250106435   -0.2914682597
C       -3.0301226543    0.5120640829   -0.3285406436
C       -1.6925420591    0.2782916644   -0.2256644825
C       -3.4402802343    1.8054377947   -0.4681121518
C       -2.5750505200    2.8294698257   -0.6185816572
C       -1.1823442826    2.6346487431   -0.5672292216
C       -0.5894668237    1.3719762617   -0.2945517424
C       -0.3587293100    3.7636207143   -0.7993016498
C        0.9872480384    3.7046666714   -0.7214548442
C        1.6659109489    2.5865122698   -0.3436330464
C        0.9530503278    1.4519118115   -0.1453586586
C        3.0916818487    2.5224648787   -0.1297376195
C        3.9108663896    1.5808830705    0.3660848301
C        3.2904863864    0.4127870923    0.6600451235
C        1.9678127964    0.4905603249    0.2575227520
C        4.0335236028   -0.5720491108    1.2568876034
C        3.4215080947   -1.7216605484    1.5239931589
C        2.2880113863   -1.6118220207    0.8178030195
C        1.5675448100   -0.7610672156    0.1476804816
H        0.6573912616   -3.2892154266    0.3652428827
H        4.9292641187    1.5417236391    0.5318673313
H        3.7764261253   -2.5528027665    2.0228402214
H        4.9916313284   -0.5001390879    1.5439412338
H        3.5839741083    3.3878964067   -0.3820543356
H        1.5862120116    4.5535630383   -0.9158787795
H       -0.8417673355    4.7001431050   -1.0428371564
H       -2.9389875624    3.8328392894   -0.7881719884
H       -4.4829784520    1.9597074168   -0.4913518130
H       -4.3723964864   -2.7648960482   -0.2868562504
H       -0.4823992643   -4.9570865647   -0.4041595813
H       -2.8549662870   -4.3744836566   -0.4993552064
H       -4.9174296900   -0.3615996845   -0.2875713122
H        0.0699949387   -0.8371319492    0.8186988245
H        0.6274971278   -0.7514787779   -0.4640098486
H        1.9164580011   -2.5785872181    0.9162640458
42   
Interpolated frame 36 (method 5)
C       -0.9116045761   -4.0127173980   -0.2144636239
C       -0.3067576248   -2.9077178422    0.2390084071
C       -0.4831114012   -1.6512518551    0.4319385181
C       -1.6037686057   -1.1558311148   -0.0801030302
C       -2.4081136018   -2.2766731707   -0.2345397820
C       -2.1855344576   -3.6389095507   -0.3177860615
C       -3.7206075287   -1.9525416207   -0.3127969847
C       -3.9137700708   -0.6266738795   -0.3163288484
C       -3.0254078141    0.5100577450   -0.3472341503
C       -1.6884072895    0.2825146855   -0.2288039235
C       -3.4366658843    1.8021977066   -0.4935133549
C       -2.5742624085    2.8293741778   -0.6325158906
C       -1.1833922031    2.6382334121   -0.5687473859
C       -0.5927029671    1.3782060647   -0.2964953570
C       -0.3608247418    3.7678058056   -0.7875583617
C        0.9835102502    3.7083994244   -0.6971752786
C        1.6620197641    2.5881140100   -0.3252857704
C        0.9463832442    1.4524011601   -0.1442504760
C        3.0851244110    2.5254126652   -0.1045868841
C        3.9012654913    1.5806388749    0.3813494259
C        3.2792624528    0.4075489098    0.6453112725
C        1.9553803648    0.4784768756    0.2391170175
C        4.0328388703   -0.5762728020    1.2241278927
C        3.4307296943   -1.7366499766    1.4538874964
C        2.2979733550   -1.6239378516    0.7455562285
C        1.5591281130   -0.7743398727    0.0988181739
H        0.6389580884   -3.2768739413    0.4705725141
H        4.9195828902    1.5402933287    0.5542916384
H        3.7953924642   -2.5724392637    1.9351070466
H        4.9895806178   -0.5019447446    1.5205513610
H        3.5766856733    3.3947696931   -0.3413846193
H        1.5822001513    4.5592205268   -0.8800932075
H       -0.8431527031    4.7044836693   -1.0299055700
H       -2.9386914363    3.8319314671   -0.8031210333
H       -4.4787310288    1.9538758138   -0.5279129964
H       -4.3612264833   -2.7659451229   -0.3065332221
H       -0.4944916220   -4.9511567802   -0.3116404446
H       -2.8561784096   -4.3675998756   -0.4754799113
H       -4.9109079398   -0.3659291327   -0.3281596521
H        0.0893455109   -0.8217265369    0.8556901249
H        0.6144969812   -0.7794911011   -0.4992643546
H        1.9384524099   -2.5973325826    0.8103530572
42   
Interpolated frame 37 (method 5)
C       -0.9167717509   -3.9987304082   -0.1266133116
C       -0.3111360779   -2.8908594375    0.3241493457
C       -0.4749621481   -1.6277172871    0.4856638113
C       -1.5904602413   -1.1468368255   -0.0572078149
C       -2.3965815408   -2.2677260553   -0.2155753195
C       -2.1845287382   -3.6282683511   -0.2764265251
C       -3.7081516900   -1.9510830601   -0.3275017776
C       -3.9054962192   -0.6290275353   -0.3445347869
C       -3.0192086954    0.5073359163   -0.3685570078
C       -1.6831154603    0.2869308960   -0.2318315877
C       -3.4318503733    1.7981244362   -0.5232885936
C       -2.5730394775    2.8290585940   -0.6489134872
C       -1.1844756704    2.6421592820   -0.5703294595
C       -0.5963094793    1.3850145294   -0.2985460980
C       -0.3633671379    3.7724855640   -0.7733964772
C        0.9789175373    3.7123656248   -0.6683967253
C        1.6572594078    2.5892291218   -0.3039871133
C        0.9386427769    1.4523172118   -0.1431582530
C        3.0773163572    2.5277139376   -0.0756784347
C        3.8900065842    1.5784613419    0.3977347681
C        3.2657260264    0.4003451649    0.6262034168
C        1.9409005925    0.4640502234    0.2167301161
C        4.0291349549   -0.5838949869    1.1827629164
C        3.4381597214   -1.7552056323    1.3683087676
C        2.3033654098   -1.6423606457    0.6604898448
C        1.5470562496   -0.7888734538    0.0432479013
H        0.6268985489   -3.2532853962    0.5949904366
H        4.9082862454    1.5367155954    0.5785050356
H        3.8163301880   -2.5950189950    1.8285579224
H        4.9852482033   -0.5075483343    1.4894658971
H        3.5679194677    3.4016359179   -0.2937738917
H        1.5771295542    4.5654432523   -0.8374875329
H       -0.8449347984    4.7094229677   -1.0141279894
H       -2.9380763759    3.8306632166   -0.8209559731
H       -4.4730389493    1.9467468434   -0.5711393579
H       -4.3473254750   -2.7675336610   -0.3272547477
H       -0.5085454588   -4.9418004561   -0.2004470089
H       -2.8542046605   -4.3589666297   -0.4437024158
H       -4.9023218683   -0.3715141936   -0.3752852345
H        0.1109644262   -0.8019481285    0.8967459857
H        0.5975009631   -0.8076127081   -0.5394652711
H        1.9511390721   -2.6204074561    0.6840260305
42   
Interpolated frame 38 (method 5)
C       -0.9197587665   -3.9786022913   -0.0197044123
C       -0.3081123914   -2.8688035112    0.4263377451
C       -0.4638186025   -1.5987500240    0.5474646668
C       -1.5745100660   -1.1364450724   -0.0286301950
C       -2.3826003979   -2.2568258144   -0.1903545931
C       -2.1795034506   -3.6141883601   -0.2232329460
C       -3.6925048952   -1.9499434622   -0.3423560881
C       -3.8949342788   -0.6323338098   -0.3769069222
C       -3.0112065565    0.5036795348   -0.3931922023
C       -1.6765330137    0.2915313789   -0.2344721956
C       -3.4255023264    1.7929399969   -0.5588742284
C       -2.5712347084    2.8284036563   -0.6686097909
C       -1.1855877016    2.6464439437   -0.5720055082
C       -0.6003386529    1.3924402623   -0.3007410278
C       -0.3664775848    3.7777696907   -0.7560185095
C        0.9732440953    3.7166529496   -0.6336769582
C        1.6514823612    2.5897198105   -0.2789908582
C        0.9297268804    1.4514774660   -0.1423525089
C        3.0680266878    2.5291490324   -0.0420770764
C        3.8768287656    1.5736859406    0.4151003802
C        3.2495641863    0.3904646577    0.6009184266
C        1.9240440346    0.4465787895    0.1887921731
C        4.0219716281   -0.5962082771    1.1296419231
C        3.4428091581   -1.7781400662    1.2632198978
C        2.3026264364   -1.6689896721    0.5590133361
C        1.5303540259   -0.8052420973   -0.0212265650
H        0.6244050742   -3.2151762211    0.7402108845
H        4.8951152147    1.5303417565    0.6046126424
H        3.8384785763   -2.6210353962    1.6990184520
H        4.9784179906   -0.5184223621    1.4476605997
H        3.5573291694    3.4084953132   -0.2370893125
H        1.5706629282    4.5724569358   -0.7857705446
H       -0.8472479981    4.7151172176   -0.9945020979
H       -2.9369954238    3.8288791836   -0.8427144272
H       -4.4654623762    1.9379115770   -0.6233072896
H       -4.3301091591   -2.7698589580   -0.3489015649
H       -0.5242857502   -4.9272858082   -0.0665988532
H       -2.8482465314   -4.3483346033   -0.4007119682
H       -4.8911117874   -0.3788102588   -0.4309623933
H        0.1356046971   -0.7759992534    0.9427413359
H        0.5750178510   -0.8359252166   -0.5858298830
H        1.9503726583   -2.6488185578    0.5350784570
42   
Interpolated frame 39 (method 5)
C       -0.9189628472   -3.9469270176    0.1201184544
C       -0.2922098562   -2.8369539916    0.5576299464
C       -0.4470785597   -1.5601118296    0.6236473435
C       -1.5540809179   -1.1236329485    0.0106155759
C       -2.3646512324   -2.2425957892   -0.1532748999
C       -2.1680474297   -3.5942917925   -0.1478495957
C       -3.6713240321   -1.9494331963   -0.3568997715
C       -3.8803568866   -0.6374702957   -0.4167515069
C       -3.0000169260    0.4982523817   -0.4238131909
C       -1.6678252331    0.2962561356   -0.2361407983
C       -3.4163471655    1.7856264927   -0.6053398085
C       -2.5683097326    2.8269901032   -0.6945110475
C       -1.1866935979    2.6511942349   -0.5738191472
C       -0.6049790948    1.4006673147   -0.3031404851
C       -0.3705993227    3.7840722975   -0.7325387966
C        0.9656359962    3.7215456524   -0.5878217372
C        1.6439713667    2.5890558489   -0.2473019745
C        0.9190191190    1.4491845659   -0.1422752460
C        3.0562207098    2.5290177840   -0.0000577293
C        3.8604305997    1.5641321625    0.4336394685
C        3.2292622180    0.3757340375    0.5639786791
C        1.9032338275    0.4236564129    0.1504876811
C        4.0095701176   -0.6169170960    1.0546249905
C        3.4419602527   -1.8080506456    1.1241242654
C        2.2906421114   -1.7092129145    0.4291997477
C        1.5052443688   -0.8250622059   -0.1015224058
H        0.6394443112   -3.1533169438    0.9153163515
H        4.8788115627    1.5189685598    0.6335965544
H        3.8608328674   -2.6525990263    1.5300247549
H        4.9680969778   -0.5389731132    1.3852934996
H        3.5435305186    3.4153209399   -0.1636146515
H        1.5616034659    4.5809768752   -0.7168428664
H       -0.8505617218    4.7221320276   -0.9674958239
H       -2.9349611908    3.8260290696   -0.8719441138
H       -4.4543671820    1.9258502156   -0.6923593396
H       -4.3071934839   -2.7735154818   -0.3717343356
H       -0.5419232956   -4.9024232880    0.1057279081
H       -2.8358396505   -4.3344568645   -0.3360728243
H       -4.8751420597   -0.3894105925   -0.5024579851
H        0.1659773313   -0.7387697516    0.9968807802
H        0.5423444376   -0.8646397785   -0.6425358138
H        1.9256392591   -2.6858985491    0.3532098939
42   
Interpolated frame 40 (method 5)
C       -0.9134677343   -3.8991928885    0.2989480588
C       -0.2600144632   -2.7912918198    0.7213859594
C       -0.4226260075   -1.5095658784    0.7158823907
C       -1.5282179284   -1.1078977000    0.0634210989
C       -2.3424201843   -2.2244385947   -0.1005528821
C       -2.1493243833   -3.5672580415   -0.0428809050
C       -3.6431061216   -1.9498662595   -0.3698600299
C       -3.8606222134   -0.6452894424   -0.4661553125
C       -2.9845301396    0.4902334213   -0.4622196318
C       -1.6564640505    0.3004226853   -0.2362641918
C       -3.4032886514    1.7752001883   -0.6665596157
C       -2.5636711761    2.8241589122   -0.7288813427
C       -1.1875754198    2.6559835534   -0.5756303212
C       -0.6099117585    1.4089085794   -0.3055358950
C       -0.3759878828    3.7914057797   -0.7004503257
C        0.9555189794    3.7271407450   -0.5266992141
C        1.6342294694    2.5866272374   -0.2067567077
C        0.9066272695    1.4445851854   -0.1430750209
C        3.0413679835    2.5266684934    0.0527875656
C        3.8401312144    1.5479250250    0.4525076661
C        3.2046555587    0.3548751282    0.5117457417
C        1.8777830479    0.3941516029    0.0990318485
C        3.9917044030   -0.6483011799    0.9504963969
C        3.4327148059   -1.8448703584    0.9437770608
C        2.2626707541   -1.7639726965    0.2669934462
C        1.4687649848   -0.8488187107   -0.1997803740
H        0.6765145405   -3.0656795234    1.1154213523
H        4.8588392469    1.5009599775    0.6648433108
H        3.8800698207   -2.6900280956    1.3128353158
H        4.9549338043   -0.5726163433    1.2936335177
H        3.5257157656    3.4216120940   -0.0677906605
H        1.5489836733    4.5913825752   -0.6241208973
H       -0.8552765621    4.7306380566   -0.9299702026
H       -2.9313624866    3.8214107118   -0.9115592998
H       -4.4382367513    1.9091853034   -0.7845952786
H       -4.2772774477   -2.7788697544   -0.3948289427
H       -0.5603252564   -4.8621174203    0.3240306269
H       -2.8161711670   -4.3168163157   -0.2405354922
H       -4.8526683490   -0.4049410904   -0.5948591870
H        0.2033519884   -0.6874215326    1.0592487978
H        0.4965577488   -0.8924889265   -0.7104054646
H        1.8714110756   -2.7317326831    0.1429770405
42   
Interpolated frame 41 (method 5)
C       -0.9057722201   -3.8456754709    0.4764621134
C       -0.2219154900   -2.7406720670    0.8788044925
C       -0.3961421420   -1.4587587522    0.8024325705
C       -1.5023518471   -1.0924247139    0.1169107261
C       -2.3212029502   -2.2065053379   -0.0449753530
C       -2.1287618526   -3.5391228310    0.0688084987
C       -3.6136234594   -1.9510524852   -0.3790822613
C       -3.8398084027   -0.6544070806   -0.5159709734
C       -2.9676117882    0.4810032159   -0.5013514970
C       -1.6446102695    0.3024589207   -0.2354808271
C       -3.3887149516    1.7634744295   -0.7308150074
C       -2.5579840957    2.8200326162   -0.7651285036
C       -1.1878156435    2.6592591038   -0.5768839921
C       -0.6135675602    1.4143566568   -0.3071461292
C       -0.3814910440    3.7979676214   -0.6656047425
C        0.9449132942    3.7322706324   -0.4618370994
C        1.6239930816    2.5828162127   -0.1647599829
C        0.8954443247    1.4382441245   -0.1435941963
C        3.0264476843    2.5228226675    0.1065189307
C        3.8197972795    1.5285986151    0.4681246580
C        3.1814965981    0.3329882953    0.4569121220
C        1.8528477507    0.3650897164    0.0468918211
C        3.9734647943   -0.6826605324    0.8399078912
C        3.4176044615   -1.8790337845    0.7623896912
C        2.2258084426   -1.8169421084    0.1096669787
C        1.4291233024   -0.8707132594   -0.2930226244
H        0.7200086459   -2.9769857701    1.2950975668
H        4.8392188758    1.4805251744    0.6918899558
H        3.8916374583   -2.7252131647    1.0926470553
H        4.9432855100   -0.6115796767    1.1906285560
H        3.5075570984    3.4256960283    0.0317165714
H        1.5351862072    4.6013929209   -0.5251711537
H       -0.8604975667    4.7386170077   -0.8888601222
H       -2.9266116278    3.8155901252   -0.9539534352
H       -4.4198433926    1.8909163491   -0.8823360411
H       -4.2467802845   -2.7846207300   -0.4137504152
H       -0.5756397661   -4.8143275644    0.5425036164
H       -2.7951082259   -4.2991724228   -0.1329226590
H       -4.8279194159   -0.4228739343   -0.6900526355
H        0.2385668709   -0.6344651263    1.1166171400
H        0.4492312077   -0.9133828500   -0.7747770538
H        1.8081411084   -2.7735307711   -0.0474542504
42   
Interpolated frame 42 (method 5)
C       -0.8974176610   -3.7841545752    0.6680988670
C       -0.1810551582   -2.6814851226    1.0440683470
C       -0.3673827404   -1.4042780387    0.8913657955
C       -1.4740326996   -1.0756406062    0.1733743394
C       -2.2991716736   -2.1874874755    0.0150542806
C       -2.1059093150   -3.5078021975    0.1941510681
C       -3.5802577622   -1.9528345472   -0.3880437136
C       -3.8161939580   -0.6656424550   -0.5725594689
C       -2.9476381251    0.4696608831   -0.5459990704
C       -1.6309376860    0.3023475617   -0.2350921382
C       -3.3713267534    1.7493354621   -0.8043044927
C       -2.5507028948    2.8141073846   -0.8066221442
C       -1.1873718220    2.6612118565   -0.5776915762
C       -0.6161146781    1.4171765723   -0.3080692196
C       -0.3875374587    3.8042857168   -0.6247755352
C        0.9328726483    3.7374937692   -0.3870028605
C        1.6120564398    2.5775075548   -0.1163661519
C        0.8842669247    1.4295537563   -0.1425120197
C        3.0098618608    2.5178969053    0.1676301929
C        3.7969244501    1.5056101185    0.4841764737
C        3.1575801244    0.3090937652    0.3978719186
C        1.8256956054    0.3345538149   -0.0082138334
C        3.9540538682   -0.7213207763    0.7159573346
C        3.3985576008   -1.9134262238    0.5648582346
C        2.1820374596   -1.8688948117   -0.0576028812
C        1.3852056207   -0.8922390970   -0.3897497579
H        0.7620095609   -2.8825739095    1.4824252777
H        4.8176547112    1.4571303749    0.7194913770
H        3.9000847713   -2.7622858102    0.8471465555
H        4.9325526979   -0.6568710172    1.0697596488
H        3.4874063379    3.4282088177    0.1447014448
H        1.5190371883    4.6118065025   -0.4109558965
H       -0.8665760479    4.7466740083   -0.8407227438
H       -2.9202960940    3.8079647703   -1.0027317853
H       -4.3974769222    1.8693104099   -0.9944846628
H       -4.2130784200   -2.7910864878   -0.4328200369
H       -0.5913790760   -4.7569217009    0.7841024676
H       -2.7724496694   -4.2795838944   -0.0066353265
H       -4.7987554131   -0.4450020489   -0.7975109241
H        0.2730967866   -0.5773251185    1.1774865578
H        0.3994436517   -0.9311380659   -0.8441491298
H        1.7426637203   -2.8129360251   -0.2471048120
42   
Interpolated frame 43 (method 5)
C       -0.8908700866   -3.7045081333    0.9110909106
C       -0.1389012249   -2.6020706149    1.2496321941
C       -0.3347048735   -1.3372252440    0.9997165857
C       -1.4381216486   -1.0547820475    0.2408149481
C       -2.2728793033   -2.1647490979    0.0872013311
C       -2.0778973966   -3.4676004262    0.3557583894
C       -3.5359388763   -1.9558749949   -0.4017111847
C       -3.7846095646   -0.6821046281   -0.6507341670
C       -2.9197033989    0.4530592437   -0.6073353021
C       -1.6121670767    0.2983646995   -0.2366415596
C       -3.3467340209    1.7292552721   -0.9034655417
C       -2.5397283139    2.8043884295   -0.8624338654
C       -1.1857230244    2.6613094095   -0.5779321125
C       -0.6171925311    1.4159889309   -0.3080281316
C       -0.3953166238    3.8110081037   -0.5686223479
C        0.9166519132    3.7434960673   -0.2851194672
C        1.5954077102    2.5691198977   -0.0493974628
C        0.8714211140    1.4156281431   -0.1373292536
C        2.9878439668    2.5112467708    0.2517951158
C        3.7660940868    1.4749264050    0.5067169569
C        3.1292571673    0.2793886078    0.3271752713
C        1.7914628250    0.2976559156   -0.0739869242
C        3.9311829361   -0.7704340325    0.5563429746
C        3.3760316557   -1.9528691671    0.3129027139
C        2.1293696916   -1.9231787760   -0.2691496141
C        1.3323907182   -0.9155950912   -0.5085760377
H        0.7949798826   -2.7665880020    1.7256682716
H        4.7892149641    1.4272360292    0.7559957975
H        3.9102150663   -2.8072948285    0.5229013956
H        4.9218114721   -0.7153611534    0.9079902462
H        3.4608422568    3.4288731263    0.2969170304
H        1.4966408164    4.6240027161   -0.2560620970
H       -0.8747451195    4.7558567133   -0.7750719556
H       -2.9106029969    3.7963458588   -1.0682390496
H       -4.3652159630    1.8393011595   -1.1456320639
H       -4.1693624812   -2.7997485349   -0.4591228757
H       -0.6145363026   -4.6783004637    1.1011468604
H       -2.7457780371   -4.2536858150    0.1621561693
H       -4.7581502233   -0.4771707119   -0.9415401147
H        0.3088211105   -0.5069641730    1.2581934870
H        0.3424313284   -0.9483174923   -0.9365310225
H        1.6768084054   -2.8520280712   -0.5074544984
42   
Interpolated frame 44 (method 5)
C       -0.8951097438   -3.6174692802    1.1829631744
C       -0.1146965359   -2.5115008878    1.4812956430
C       -0.3092824701   -1.2666153900    1.1201782352
C       -1.3998509783   -1.0334181231    0.3102629774
C       -2.2464863194   -2.1426527446    0.1592295561
C       -2.0504779663   -3.4233997298    0.5348335842
C       -3.4841169136   -1.9609230677   -0.4243191531
C       -3.7467014525   -0.7038348533   -0.7486286023
C       -2.8849474320    0.4313502248   -0.6826022690
C       -1.5894651481    0.2883634552   -0.2416773324
C       -3.3155240611    1.7042115357   -1.0212299312
C       -2.5250610747    2.7908254906   -0.9281804821
C       -1.1824781210    2.6584364996   -0.5772206841
C       -0.6156733578    1.4085368739   -0.3064702033
C       -0.4042458727    3.8165918564   -0.5010527848
C        0.8969306441    3.7488276508   -0.1629254479
C        1.5747584672    2.5574333841    0.0333061725
C        0.8591828383    1.3959966915   -0.1258964028
C        2.9615726253    2.5035074985    0.3567469312
C        3.7292454681    1.4401967480    0.5388583399
C        3.1015037933    0.2477741119    0.2569181081
C        1.7557306745    0.2591377287   -0.1413143612
C        3.9098765329   -0.8228375352    0.3796317788
C        3.3603833752   -1.9898093330    0.0299504547
C        2.0854085329   -1.9665545929   -0.5116268322
C        1.2838244300   -0.9353783268   -0.6412644525
H        0.7935258322   -2.6432791005    2.0183937295
H        4.7555219939    1.3952668823    0.8041897621
H        3.9270673524   -2.8507671966    0.1461713217
H        4.9133615337   -0.7776515498    0.7255324204
H        3.4291060999    3.4263009314    0.4794048760
H        1.4686034239    4.6354571103   -0.0717278906
H       -0.8843267406    4.7644920746   -0.6972563438
H       -2.8976245087    3.7810444961   -1.1448683892
H       -4.3234814217    1.8029132002   -1.3243155953
H       -4.1191660080   -2.8106559748   -0.4967860399
H       -0.6515081703   -4.5853465240    1.4669292041
H       -2.7204229191   -4.2236859999    0.3520898670
H       -4.7074161386   -0.5183183736   -1.1133903931
H        0.3336889236   -0.4324938224    1.3589709031
H        0.2915386412   -0.9610803782   -1.0513999818
H        1.6372321717   -2.8789916603   -0.8217034669
42   
Interpolated frame 45 (method 5)
C       -0.9136222662   -3.5401500704    1.4357378881
C       -0.1172789041   -2.4287256189    1.7053058655
C       -0.3012079264   -1.2062914299    1.2371099701
C       -1.3683733359   -1.0164118816    0.3714367536
C       -2.2255193013   -2.1262747227    0.2176894120
C       -2.0298458704   -3.3835830612    0.6975247573
C       -3.4337696388   -1.9679179609   -0.4540164106
C       -3.7080241788   -0.7275051576   -0.8498108424
C       -2.8491898090    0.4082600497   -0.7581351798
C       -1.5672692415    0.2739231017   -0.2485800113
C       -3.2824177809    1.6789163279   -1.1359818295
C       -2.5090153752    2.7761045485   -0.9915788066
C       -1.1782884319    2.6533658770   -0.5757090473
C       -0.6120385073    1.3965677949   -0.3037887788
C       -0.4130484689    3.8198355404   -0.4347148364
C        0.8764977464    3.7517836153   -0.0426906500
C        1.5536629618    2.5440619392    0.1168295788
C        0.8502925230    1.3739261087   -0.1109825798
C        2.9351512475    2.4953117796    0.4650925436
C        3.6930427380    1.4078156756    0.5771552710
C        3.0805876042    0.2200257323    0.2000960909
C        1.7275639074    0.2259400988   -0.2000578950
C        3.8949081482   -0.8680085709    0.2191049126
C        3.3586139832   -2.0158802679   -0.2338853949
C        2.0643624009   -1.9925285862   -0.7484557848
C        1.2539938692   -0.9470675627   -0.7698640380
H        0.7536474782   -2.5331261793    2.3133110380
H        4.7220185890    1.3672645517    0.8595521657
H        3.9513986015   -2.8797975406   -0.2107904355
H        4.9081076989   -0.8306896471    0.5616210059
H        3.3965674849    3.4200934212    0.6606608714
H        1.4387719037    4.6431347899    0.1082464428
H       -0.8937658878    4.7708559813   -0.6219972440
H       -2.8834758826    3.7650496394   -1.2182441483
H       -4.2784358914    1.7672043652   -1.4976617478
H       -4.0706300085   -2.8227137670   -0.5429347432
H       -0.7011369041   -4.4958039309    1.8104725021
H       -2.7009481673   -4.1955742443    0.5224612721
H       -4.6539092016   -0.5611145968   -1.2832434190
H        0.3382131691   -0.3675469619    1.4667065177
H        0.2600823375   -0.9658723971   -1.1734710217
H        1.6337265872   -2.8868567825   -1.1395200145
42   
Interpolated frame 46 (method 5)
C       -0.9403366214   -3.4788364855    1.6444805882
C       -0.1370092914   -2.3623482288    1.8999827660
C       -0.3082515015   -1.1607774640    1.3408741950
C       -1.3467216513   -1.0044507006    0.4221664644
C       -2.2110610198   -2.1158808841    0.2610331008
C       -2.0165044657   -3.3512618639    0.8295687534
C       -3.3901404841   -1.9755850266   -0.4847463391
C       -3.6725865652   -0.7496485601   -0.9405439208
C       -2.8169082334    0.3872826122   -0.8239036011
C       -1.5485847897    0.2587457126   -0.2547013037
C       -3.2514745068    1.6568566289   -1.2343572874
C       -2.4938301553    2.7627437085   -1.0454431054
C       -1.1741356384    2.6478727524   -0.5739128426
C       -0.6077660700    1.3838134182   -0.3008665180
C       -0.4210215127    3.8211536277   -0.3775994311
C        0.8574486129    3.7523583639    0.0612324523
C        1.5347152135    2.5309282485    0.1899598064
C        0.8449686526    1.3530976436   -0.0969602182
C        2.9113406377    2.4870313081    0.5624023460
C        3.6616400001    1.3805891940    0.6149491616
C        3.0672190824    0.1981958856    0.1579458387
C        1.7092713774    0.2002955240   -0.2484930379
C        3.8859364289   -0.9025454839    0.0886620997
C        3.3669577123   -2.0307735868   -0.4524168014
C        2.0621237865   -2.0057850201   -0.9549952969
C        1.2429517758   -0.9517307755   -0.8834014804
H        0.6948897334   -2.4435834221    2.5714611415
H        4.6921724244    1.3448405720    0.9143691344
H        3.9788945323   -2.8933863366   -0.5060217987
H        4.9051094960   -0.8710361071    0.4323928265
H        3.3663603755    3.4114036848    0.8193244082
H        1.4103808557    4.6467654998    0.2630901152
H       -0.9022386051    4.7749697289   -0.5578066490
H       -2.8700771814    3.7508198594   -1.2804076941
H       -4.2356674098    1.7367565879   -1.6459956760
H       -4.0281821254   -2.8344221987   -0.5902844363
H       -0.7547376657   -4.4206403832    2.0920585728
H       -2.6871499698   -4.1725760109    0.6567626723
H       -4.6036479740   -0.5996090206   -1.4312083241
H        0.3259726744   -0.3170079452    1.5683768487
H        0.2477562819   -0.9640226490   -1.2879862000
H        1.6519237840   -2.8806124075   -1.4190413299
42   
Interpolated frame 47 (method 5)
C       -0.9685207759   -3.4324594326    1.8071898602
C       -0.1630394053   -2.3119328674    2.0589321741
C       -0.3232671082   -1.1281358690    1.4278309898
C       -1.3330916264   -0.9961832889    0.4632941798
C       -2.2016189141   -2.1096017066    0.2925012310
C       -2.0085322792   -3.3260530807    0.9316064245
C       -3.3544042527   -1.9826555095   -0.5123698058
C       -3.6421221912   -0.7684876808   -1.0157867255
C       -2.7897734930    0.3698817175   -0.8771092769
C       -1.5340014596    0.2452352872   -0.2591071607
C       -3.2246318448    1.6390624024   -1.3135400907
C       -2.4806282630    2.7517377129   -1.0885300291
C       -1.1705582800    2.6430371056   -0.5722088873
C       -0.6038307683    1.3725338652   -0.2982511611
C       -0.4279185228    3.8213980275   -0.3315041882
C        0.8407723275    3.7514454336    0.1453913844
C        1.5187846353    2.5192360800    0.2493586694
C        0.8421168852    1.3353688788   -0.0857390266
C        2.8910823924    2.4792179148    0.6432813313
C        3.6359243764    1.3587728700    0.6481142616
C        3.0592068148    0.1818609247    0.1272207197
C        1.6984840701    0.1813418391   -0.2877621877
C        3.8809329251   -0.9276014012   -0.0123639923
C        3.3796007659   -2.0379749007   -0.6232506134
C        2.0698099897   -2.0117030636   -1.1237894324
C        1.2437559607   -0.9522413376   -0.9780391463
H        0.6340829888   -2.3741739818    2.7804894370
H        4.6669807961    1.3273465399    0.9634005830
H        4.0055051014   -2.8970592323   -0.7347635218
H        4.9034359362   -0.9005519745    0.3356708305
H        3.3399210059    3.4019025267    0.9492802175
H        1.3851775872    4.6476025155    0.3882601942
H       -0.9095110513    4.7775348118   -0.5062193717
H       -2.8583693903    3.7392052428   -1.3301596148
H       -4.1980684880    1.7125592682   -1.7653971809
H       -3.9928205206   -2.8446967516   -0.6334428035
H       -0.8048008883   -4.3620324759    2.3086174676
H       -2.6775320124   -4.1548884776    0.7573277636
H       -4.5596424335   -0.6315346848   -1.5519067179
H        0.3053365957   -0.2796587437    1.6569688692
H        0.2478320522   -0.9588217207   -1.3871774055
H        1.6779407626   -2.8678327826   -1.6463182483
42   
Interpolated frame 48 (method 5)
C       -0.9980909675   -3.3936885791    1.9465970890
C       -0.1930155406   -2.2696459172    2.2006482775
C       -0.3433755447   -1.1022580287    1.5073254287
C       -1.3239464227   -0.9896594568    0.5003876594
C       -2.1948125626   -2.1054060243    0.3181580803
C       -2.0035804057   -3.3042398090    1.0186864135
C       -3.3222220407   -1.9893488054   -0.5385744343
C       -3.6135558968   -0.7856883092   -1.0836175138
C       -2.7649099044    0.3543155372   -0.9240810497
C       -1.5215856365    0.2326648514   -0.2623290557
C       -3.1993444524    1.6234622282   -1.3834387250
C       -2.4682172470    2.7419719555   -1.1264070315
C       -1.1673032515    2.6386461456   -0.5705526520
C       -0.6001264831    1.3621623911   -0.2958254593
C       -0.4344853966    3.8210880901   -0.2907337720
C        0.8248446548    3.7495746398    0.2200280791
C        1.5041208984    2.5080930764    0.3019434814
C        0.8405957208    1.3191971406   -0.0762989591
C        2.8721615914    2.4713363763    0.7163444656
C        3.6127167387    1.3395107326    0.6791076844
C        3.0539575742    0.1683925294    0.1020288896
C        1.6918047504    0.1658083731   -0.3233006832
C        3.8780400649   -0.9475916509   -0.0988191622
C        3.3948847034   -2.0408533494   -0.7700121926
C        2.0831924543   -2.0136946848   -1.2743449020
C        1.2515636318   -0.9504304084   -1.0641580344
H        0.5715651455   -2.3150011747    2.9645771399
H        4.6435664710    1.3120587000    1.0102739210
H        4.0324303927   -2.8952558281   -0.9291751351
H        4.9024512655   -0.9245579807    0.2555906600
H        3.3146240577    3.3915021168    1.0656295691
H        1.3608757018    4.6466961344    0.4992265623
H       -0.9164016447    4.7793130472   -0.4606564099
H       -2.8472791866    3.7289413326   -1.3739891397
H       -4.1622427125    1.6915586875   -1.8708881471
H       -3.9603297525   -2.8542766379   -0.6751779584
H       -0.8538020621   -4.3123235814    2.4915913213
H       -2.6700368394   -4.1399443028    0.8406402291
H       -4.5177850501   -0.6602135724   -1.6596039467
H        0.2791770899   -0.2492521158    1.7403124522
H        0.2554786224   -0.9516957141   -1.4799683529
H        1.7083974709   -2.8512681547   -1.8471446870
42   
Interpolated frame 49 (method 5)
C       -1.0290390394   -3.3595734423    2.0720321304
C       -0.2261022904   -2.2322885875    2.3324973177
C       -0.3672573652   -1.0806194514    1.5829040582
C       -1.3177570818   -0.9841081868    0.5355287667
C       -2.1896409293   -2.1024704579    0.3403738790
C       -2.0007199066   -3.2843643932    1.0969000459
C       -3.2918289851   -1.9957277326   -0.5641018566
C       -3.5856463074   -0.8019106837   -1.1473960755
C       -2.7411274201    0.3398674849   -0.9674763381
C       -1.5105140799    0.2206949771   -0.2646869153
C       -3.1745660230    1.6092074706   -1.4481335171
C       -2.4560978904    2.7329795966   -1.1613692516
C       -1.1642584037    2.6345820491   -0.5689216571
C       -0.5965867858    1.3524131149   -0.2935290198
C       -0.4410304433    3.8204229833   -0.2529375365
C        0.8089964418    3.7469703407    0.2893570556
C        1.4899878025    2.4971460554    0.3506114311
C        0.8399236145    1.3039416322   -0.0681070915
C        2.8536575653    2.4632092707    0.7851557249
C        3.5906957338    1.3216719826    0.7089751050
C        3.0503842001    0.1567189565    0.0800884675
C        1.6877765139    0.1523642260   -0.3571281574
C        3.8765524995   -0.9643168896   -0.1766946568
C        3.4121900529   -2.0408113655   -0.9023832050
C        2.1006073882   -2.0130042912   -1.4144781568
C        1.2642521560   -0.9470370961   -1.1457368984
H        0.5072399046   -2.2621549967    3.1337914026
H        4.6207451254    1.2978948655    1.0564288341
H        4.0601995742   -2.8898719937   -1.1027249155
H        4.9019558254   -0.9451895142    0.1856077692
H        3.2893917303    3.3802042593    1.1745416694
H        1.3365367132    4.6444835125    0.6023254469
H       -0.9232538569    4.7805996804   -0.4184207830
H       -2.8363526923    3.7195066153   -1.4145532955
H       -4.1268006192    1.6725085348   -1.9686252866
H       -3.9290078581   -2.8634248197   -0.7165952167
H       -0.9027736277   -4.2683422842    2.6541675215
H       -2.6639017411   -4.1266934622    0.9134922864
H       -4.4764227074   -0.6869774461   -1.7601440868
H        0.2488194073   -0.2232299588    1.8213690670
H        0.2685751801   -0.9432446355   -1.5697769019
H        1.7421986250   -2.8320259190   -2.0322271594
