42   
Frame 0-15 interpolated frame 0
C       -0.5491803991   -3.8547534200   -1.2346769129
C        0.3464183446   -2.8171552841   -1.5580971395
C        0.0496062283   -1.5069916604   -1.2373269101
C       -1.1571050688   -1.1552402763   -0.5813790781
C       -2.0976265986   -2.2053387878   -0.3365061352
C       -1.7552252041   -3.5448826324   -0.6425005946
C       -3.4042973280   -1.8885078702    0.1490198669
C       -3.7971682244   -0.5904987759    0.2635878959
C       -2.8867512048    0.4860880432    0.0151569529
C       -1.5149609215    0.2193681131   -0.2479488061
C       -3.3802799598    1.8220674300   -0.0244741859
C       -2.5616486742    2.8440316360   -0.4079236272
C       -1.1621042443    2.6298334336   -0.5663380606
C       -0.5963614996    1.3471388149   -0.2904887712
C       -0.3289221666    3.7006477335   -1.0008908052
C        1.0172711549    3.5222136253   -1.1327217337
C        1.6345756165    2.3389721012   -0.6338321618
C        0.8427264946    1.2947830192   -0.0817032572
C        3.0626361974    2.2382210805   -0.6373347836
C        3.6990927427    1.2067580920   -0.0182650757
C        2.9544410270    0.2592157380    0.7509822375
C        1.5248591610    0.3197352452    0.7621171652
C        3.6274097233   -0.6909472348    1.5568538935
C        2.9313327870   -1.5235997246    2.4072891779
C        1.5296541837   -1.4118438111    2.4874745063
C        0.8483716152   -0.5179731883    1.6846182108
H        1.2769006770   -3.0445372239   -2.0712062907
H        4.7834358136    1.1287990128   -0.0371283050
H        3.4592168098   -2.2400057549    3.0309447471
H        4.7135303292   -0.7284869654    1.5142509815
H        3.6290792988    3.0164768259   -1.1431022249
H        1.6488701559    4.3098890198   -1.5358041234
H       -0.7957506823    4.6472326605   -1.2616293280
H       -2.9526396556    3.8466462518   -0.5619541149
H       -4.4359646014    1.9935540161    0.1701351298
H       -4.0972058834   -2.7008207996    0.3547142686
H       -0.3029137153   -4.8853566018   -1.4755601578
H       -2.4806046668   -4.3260692168   -0.4265073216
H       -4.8188547430   -0.3430983877    0.5412772750
H        0.7458425181   -0.7280173881   -1.5179645175
H       -0.2264432977   -0.4394212208    1.7834873007
H        0.9767378609   -2.0281256677    3.1913548129
42   
Frame 0-15 interpolated frame 1
C       -0.6498066504   -3.9338413224   -1.2080180799
C        0.2861095230   -2.9288679383   -1.5129739677
C        0.0210909880   -1.6085734785   -1.2037775643
C       -1.1887081946   -1.1917645624   -0.5776091400
C       -2.1624584539   -2.2235247122   -0.3527006969
C       -1.8554118448   -3.5748548822   -0.6456883140
C       -3.4709838440   -1.8809465889    0.1026465843
C       -3.8304777890   -0.5762718219    0.2081885268
C       -2.8928740424    0.4790118480   -0.0195118815
C       -1.5129994060    0.2086458582   -0.2570661029
C       -3.3816505924    1.8148422771   -0.0617772180
C       -2.5562902356    2.8354766581   -0.4211771051
C       -1.1565716704    2.6227472952   -0.5569895038
C       -0.5788684279    1.3418433994   -0.2844067620
C       -0.3320223616    3.7080846500   -0.9700500719
C        1.0170181605    3.5606902421   -1.0887342057
C        1.6471725450    2.3831627896   -0.5989852360
C        0.8700341223    1.3150854590   -0.0688789485
C        3.0778853752    2.3147641191   -0.5921224476
C        3.7426711217    1.2932665578    0.0125292298
C        3.0153058952    0.3160203114    0.7580576106
C        1.5858396329    0.3422068488    0.7587359383
C        3.7031551953   -0.6340207141    1.5515232362
C        3.0184106499   -1.4997033645    2.3788013058
C        1.6132726629   -1.4261442113    2.4497270688
C        0.9228853372   -0.5299626230    1.6556339790
H        1.2214139147   -3.1896902265   -2.0009806396
H        4.8287815459    1.2451020578   -0.0001897006
H        3.5584431079   -2.2151991398    2.9929886596
H        4.7901458967   -0.6457750147    1.5185767015
H        3.6265284460    3.1159149451   -1.0814291629
H        1.6380337836    4.3654185017   -1.4741148364
H       -0.8122182074    4.6492609403   -1.2260352955
H       -2.9435014380    3.8395579447   -0.5751929332
H       -4.4406503616    1.9871283652    0.1129146245
H       -4.1872667795   -2.6767346497    0.2919208233
H       -0.4344250293   -4.9738698164   -1.4375483390
H       -2.6118790812   -4.3293704104   -0.4421488389
H       -4.8517872507   -0.3041589524    0.4630987029
H        0.7491480407   -0.8568605731   -1.4653853099
H       -0.1532280096   -0.4674740451    1.7321469405
H        1.0707337255   -2.0706220211    3.1360023698
42   
Frame 0-15 interpolated frame 2
C       -0.7489579381   -4.0090975536   -1.1804186717
C        0.2247899282   -3.0370007717   -1.4658185303
C       -0.0092927832   -1.7076860089   -1.1682406480
C       -1.2191944719   -1.2274700297   -0.5731556895
C       -2.2245542565   -2.2406819200   -0.3684846259
C       -1.9521950471   -3.6024785716   -0.6485938060
C       -3.5340264068   -1.8729628051    0.0563977646
C       -3.8607181727   -0.5626649228    0.1533444114
C       -2.8974000543    0.4711802760   -0.0536187877
C       -1.5100162668    0.1972508781   -0.2656431491
C       -3.3815741429    1.8068200797   -0.0988890819
C       -2.5502227968    2.8261260202   -0.4345618523
C       -1.1506658816    2.6148250896   -0.5480801364
C       -0.5611842470    1.3358877918   -0.2783698969
C       -0.3350223130    3.7141603148   -0.9399063637
C        1.0160739114    3.5972320702   -1.0450254826
C        1.6589479527    2.4255644261   -0.5643023530
C        0.8967957899    1.3346212463   -0.0562752146
C        3.0914843343    2.3887025746   -0.5467625942
C        3.7836776443    1.3777829629    0.0438248194
C        3.0740171027    0.3718052497    0.7650719060
C        1.6455944699    0.3648982886    0.7548648055
C        3.7762585900   -0.5784352486    1.5456703676
C        3.1030970151   -1.4763632051    2.3487051152
C        1.6955743481   -1.4399372269    2.4095428197
C        0.9964413175   -0.5407336107    1.6249643714
H        1.1636259722   -3.3305236000   -1.9279662853
H        4.8706913035    1.3586551129    0.0376611589
H        3.6547721580   -2.1912406906    2.9531471147
H        4.8634433958   -0.5654223185    1.5228078535
H        3.6220668310    3.2116858794   -1.0193999972
H        1.6261335412    4.4183663105   -1.4128217618
H       -0.8283286516    4.6497100713   -1.1915366917
H       -2.9338568570    3.8315852118   -0.5885311986
H       -4.4434818374    1.9799066526    0.0560456933
H       -4.2723653700   -2.6520936966    0.2291883413
H       -0.5638492711   -5.0572633247   -1.3988993674
H       -2.7378279405   -4.3300773114   -0.4582528008
H       -4.8806518135   -0.2663617994    0.3856663329
H        0.7482842556   -0.9833986393   -1.4099421030
H       -0.0802314023   -0.4928781488    1.6792228454
H        1.1638480604   -2.1119951030    3.0773713684
42   
Frame 0-15 interpolated frame 3
C       -0.8465739362   -4.0806678167   -1.1516832575
C        0.1626101047   -3.1415831615   -1.4164147592
C       -0.0413925402   -1.8042583903   -1.1305664836
C       -1.2486081130   -1.2623694793   -0.5679305727
C       -2.2840295235   -2.2568733089   -0.3838014970
C       -2.0456675374   -3.6279098913   -0.6510983400
C       -3.5935818488   -1.8646096101    0.0102441192
C       -3.8880587191   -0.5496659415    0.0989737685
C       -2.9004361481    0.4626514926   -0.0872166951
C       -1.5060983815    0.1852380716   -0.2736691614
C       -3.3801304557    1.7980665491   -0.1358703886
C       -2.5434864651    2.8160550267   -0.4481008409
C       -1.1444115668    2.6061450324   -0.5395864456
C       -0.5433432888    1.3293340922   -0.2723658293
C       -0.3379269346    3.7189776349   -0.9103989734
C        1.0144599941    3.6319407507   -1.0015352817
C        1.6699223358    2.4662658398   -0.5297474286
C        0.9230009745    1.3534370448   -0.0438850326
C        3.1035042787    2.4601256373   -0.5012287192
C        3.8221985610    1.4603126633    0.0756086282
C        3.1306363297    0.4265412846    0.7719662694
C        1.7041120279    0.3877859030    0.7504624068
C        3.8468208086   -0.5242515798    1.5391660575
C        3.1854623543   -1.4536589243    2.3168109752
C        1.7765568095   -1.4532786678    2.3667348644
C        1.0689999960   -0.5503249226    1.5924917339
H        1.1037557898   -3.4670554872   -1.8518727238
H        4.9093068624    1.4694564373    0.0763995897
H        3.7483081900   -2.1682465138    2.9111717295
H        4.9335820424   -0.4875016839    1.5268005403
H        3.6158060824    3.3039197388   -0.9569658729
H        1.6132183534    4.4688547838   -1.3518420656
H       -0.8440807274    4.6487034784   -1.1580554333
H       -2.9237357968    3.8228077193   -0.6020051690
H       -4.4445575751    1.9719490684   -0.0005758636
H       -4.3527183537   -2.6269976313    0.1664650829
H       -0.6910963062   -5.1357805697   -1.3593664788
H       -2.8586111404   -4.3284433859   -0.4747225507
H       -4.9056796988   -0.2297060517    0.3088378914
H        0.7434688171   -1.1074325851   -1.3514678922
H       -0.0075525491   -0.5156387265    1.6246185280
H        1.2560468940   -2.1523139197    3.0152215716
42   
Frame 0-15 interpolated frame 4
C       -0.9426173726   -4.1486883698   -1.1216182503
C        0.0996885858   -3.2426426036   -1.3645319846
C       -0.0750852223   -1.8982276444   -1.0905862149
C       -1.2770030344   -1.2964793242   -0.5618418335
C       -2.3410025121   -2.2721586957   -0.3986017066
C       -2.1359294523   -3.6512947614   -0.6530948811
C       -3.6497999480   -1.8559389535   -0.0358563121
C       -3.9126549983   -0.5372652403    0.0449871961
C       -2.9020783789    0.4534747145   -0.1203588974
C       -1.5013266877    0.1726513934   -0.2811290796
C       -3.3773885325    1.7886371859   -0.1727850629
C       -2.5361144829    2.8053256854   -0.4618187160
C       -1.1378304017    2.5967687644   -0.5314840395
C       -0.5253735411    1.3222291368   -0.2663778396
C       -0.3407432792    3.7226223105   -0.8814663227
C        1.0121934840    3.6649049273   -0.9581976719
C        1.6801150107    2.5053461819   -0.4952775097
C        0.9486455713    1.3715703465   -0.0316970429
C        3.1140124347    2.5291184180   -0.4554826649
C        3.8583221587    1.5408655100    0.1078800062
C        3.1852343058    0.4802053434    0.7786878068
C        1.7613943282    0.4108490171    0.7454871538
C        3.9149513922   -0.4715184255    1.5318844848
C        3.2655871800   -1.4316539425    2.2829227588
C        1.8562311082   -1.4662103957    2.3211004163
C        1.1405403852   -0.5587633330    1.5580864273
H        1.0419790047   -3.5992993560   -1.7723857413
H        4.9447688954    1.5775141632    0.1160177630
H        3.8391644398   -2.1463120135    2.8668052812
H        5.0007268165   -0.4120724300    1.5304192180
H        3.6078469693    3.3927419470   -0.8940627003
H        1.5993276646    4.5169933585   -1.2910860012
H       -0.8594784003    4.6463446781   -1.1255151186
H       -2.9131597649    3.8132919197   -0.6156540150
H       -4.4439614447    1.9633074063   -0.0570604911
H       -4.4285308342   -2.6015399392    0.1036795652
H       -0.8161054429   -5.2096486056   -1.3187091490
H       -2.9743898648   -4.3247066428   -0.4914844174
H       -4.9270803397   -0.1941892978    0.2324599206
H        0.7348806558   -1.2287740447   -1.2897613784
H        0.0647328176   -0.5357467801    1.5682199678
H        1.3473107268   -2.1916316083    2.9492870765
42   
Frame 0-15 interpolated frame 5
C       -1.0370654903   -4.2132826866   -1.0900231667
C        0.0361183384   -3.3401982059   -1.3099158077
C       -0.1102747992   -1.9895311774   -1.0481056822
C       -1.3044415936   -1.3298174624   -0.5547901249
C       -2.3955915024   -2.2865940257   -0.4128389528
C       -2.2230819142   -3.6727686202   -0.6544818975
C       -3.7028212170   -1.8470019181   -0.0819570384
C       -3.9346483277   -0.5254560739   -0.0087124984
C       -2.9024124408    0.4436907341   -0.1530990967
C       -1.4957768963    0.1595245189   -0.2880023189
C       -3.3734066364    1.7785779077   -0.2097012430
C       -2.5281331667    2.7939876468   -0.4757421693
C       -1.1309410109    2.5867422051   -0.5237475775
C       -0.5072972122    1.3146051112   -0.2603847801
C       -0.3434800756    3.7251636731   -0.8530453160
C        1.0092868993    3.6962004234   -0.9149401451
C        1.6895435956    2.5428745574   -0.4608428757
C        0.9737307767    1.3890495510   -0.0196966474
C        3.1230711773    2.5957599856   -0.4094747869
C        3.8921362234    1.6194523125    0.1406494412
C        3.2378876685    0.5327771144    0.7851862774
C        1.8174541015    0.4340694785    0.7398939392
C        3.9807638662   -0.4202785585    1.5236973902
C        3.3435554345   -1.4104011993    2.2468290235
C        1.9346152770   -1.4787627906    2.2724112299
C        1.2110553243   -0.5660627570    1.5216002893
H        0.9784354084   -3.7272555166   -1.6891557212
H        4.9772140815    1.6828411511    0.1565233863
H        3.9274551208   -2.1255200623    2.8197709039
H        5.0650438259   -0.3391889848    1.5335310474
H        3.5982793201    3.4782707995   -0.8306103438
H        1.5844915930    4.5628786021   -1.2304554655
H       -0.8745297977    4.6427183760   -1.0938401684
H       -2.9021416460    3.8030920596   -0.6295202012
H       -4.4417626901    1.9540255415   -0.1135264243
H       -4.4999932582   -2.5758092791    0.0407418185
H       -0.9388337402   -5.2790753113   -1.2766823774
H       -3.0853183604   -4.3190923089   -0.5084816386
H       -4.9450409921   -0.1598091808    0.1563666704
H        0.7226594986   -1.3472336267   -1.2245803606
H        0.1365684573   -0.5531743507    1.5098892073
H        1.4376267797   -2.2299876529    2.8792642018
42   
Frame 0-15 interpolated frame 6
C       -1.1299027223   -4.2745588412   -1.0566812610
C       -0.0280278382   -3.4342547257   -1.2522775123
C       -0.1468906839   -2.0780996046   -1.0028980312
C       -1.3309942065   -1.3624014784   -0.5466648986
C       -2.4479130335   -2.3002309018   -0.4264671268
C       -2.3072217971   -3.6924568134   -0.6551574365
C       -3.7527753111   -1.8378493149   -0.1281229779
C       -3.9541655171   -0.5142351123   -0.0622313828
C       -2.9015141832    0.4333322646   -0.1854918421
C       -1.4895203764    0.1458812751   -0.2942614810
C       -3.3682322771    1.7679254795   -0.2466925952
C       -2.5195617272    2.7820788370   -0.4899004164
C       -1.1237589079    2.5760959840   -0.5163505157
C       -0.4891310919    1.3064797667   -0.2543607926
C       -0.3461474111    3.7266552043   -0.8250702783
C        1.0057480374    3.7258903475   -0.8716820400
C        1.6982236234    2.5789097397   -0.4263865595
C        0.9982623112    1.4058939807   -0.0078668197
C        3.1307374705    2.6601217496   -0.3631433415
C        3.9237262775    1.6960816856    0.1739378961
C        3.2886768285    0.5842359556    0.7914109029
C        1.8723125926    0.4574314939    0.7336307994
C        4.0443723632   -0.3705744535    1.5144678971
C        3.4194490911   -1.3899483370    2.2082931951
C        2.0117286904   -1.4909565177    2.2204027617
C        1.2805476034   -0.5722226406    1.4828593912
H        0.9132351016   -3.8509030583   -1.6017837385
H        5.0067731728    1.7854504557    0.1979391714
H        4.0132888202   -2.1059485543    2.7697598855
H        5.1266971700   -0.2689091112    1.5360000164
H        3.5871821156    3.5606155277   -0.7665107318
H        1.5687308052    4.6065942691   -1.1698417096
H       -0.8892464295    4.6378911855   -1.0629545607
H       -2.8906852367    3.7922509117   -0.6436499981
H       -4.4380157613    1.9441397802   -0.1701019506
H       -4.5672791085   -2.5498911806   -0.0224567947
H       -1.0592458843   -5.3442475749   -1.2330252543
H       -3.1915370855   -4.3118163779   -0.5256691212
H       -4.9597265079   -0.1265649588    0.0803776706
H        0.7069043248   -1.4626087801   -1.1556332581
H        0.2079146789   -0.5678683141    1.4494573424
H        1.5269820198   -2.2674092428    2.8047974967
42   
Frame 0-15 interpolated frame 7
C       -1.2211142669   -4.3326072340   -1.0213487694
C       -0.0926929155   -3.5247966150   -1.1912810405
C       -0.1848873192   -2.1638494209   -0.9546943587
C       -1.3567399527   -1.3942471101   -0.5373400791
C       -2.4980810413   -2.3131163570   -0.4394374402
C       -2.3884373699   -3.7104754583   -0.6550130711
C       -3.7997799392   -1.8285326059   -0.1744314152
C       -3.9713187157   -0.5036031498   -0.1156865759
C       -2.8994500779    0.4224239894   -0.2175934328
C       -1.4826251936    0.1317356840   -0.2998708996
C       -3.3619019586    1.7567076261   -0.2838402260
C       -2.5104118516    2.7696256233   -0.5043258578
C       -1.1162963389    2.5648452112   -0.5092646415
C       -0.4708866078    1.2978560008   -0.2482747316
C       -0.3487565329    3.7271345094   -0.7974713734
C        1.0015796458    3.7540249650   -0.8283321111
C        1.7061682682    2.6134998325   -0.3918431602
C        1.0222500492    1.4221136837    0.0038113597
C        3.1370625441    2.7222660620   -0.3164128963
C        3.9531745104    1.7707571706    0.2077768580
C        3.3376848321    0.6345580082    0.7973071175
C        1.9259981896    0.4809217810    0.7266352709
C        4.1058893774   -0.3224537827    1.5040435676
C        3.4933436481   -1.3703425339    2.1670419257
C        2.0875870354   -1.5028036538    2.1647610444
C        1.3490269540   -0.5772254049    1.4416554043
H        0.8464633652   -3.9701914481   -1.5098041242
H        5.0335698687    1.8853512995    0.2403032419
H        4.0967628564   -2.0876777137    2.7164170258
H        5.1858471243   -0.2013021970    1.5376804867
H        3.5746236224    3.6398747371   -0.7016445513
H        1.5520559930    4.6482112414   -1.1091219206
H       -0.9036427084    4.6319117147   -1.0327800607
H       -2.8787843776    3.7808000867   -0.6580942175
H       -4.4327597653    1.9336789936   -0.2269286823
H       -4.6305431505   -2.5238700552   -0.0860453856
H       -1.1773051333   -5.4053300021   -1.1874479006
H       -3.2931667012   -4.3030900763   -0.5430087528
H       -4.9712790142   -0.0944590810    0.0042936668
H        0.6876700624   -1.5746703121   -1.0825679120
H        0.2787464491   -0.5797421879    1.3867161279
H        1.6153565363   -2.3039118201    2.7254624909
42   
Frame 0-15 interpolated frame 8
C       -1.3106802128   -4.3874982435   -0.9837415866
C       -0.1578322070   -3.6117814106   -1.1265259921
C       -0.2242453471   -2.2466748608   -0.9031713025
C       -1.3817683819   -1.4253669101   -0.5266687908
C       -2.5462069233   -2.3252928003   -0.4516955755
C       -2.4668045078   -3.7269327029   -0.6539271451
C       -3.8439401911   -1.8191051850   -0.2209743122
C       -3.9862052390   -0.4935660779   -0.1692098655
C       -2.8962775677    0.4109821711   -0.2494634426
C       -1.4751573163    0.1170914221   -0.3047848709
C       -3.3544405284    1.7449426765   -0.3212354861
C       -2.5006868833    2.7566423017   -0.5190550431
C       -1.1085619381    2.5529882597   -0.5024593472
C       -0.4525694389    1.2887204735   -0.2420891980
C       -0.3513197530    3.7266224558   -0.7701723109
C        0.9967788454    3.7806411473   -0.7847848907
C        1.7133881577    2.6466817240   -0.3571367149
C        1.0457081542    1.4377088458    0.0153584428
C        3.1420917225    2.7822449162   -0.2691914180
C        3.9805593338    1.8434745136    0.2422092954
C        3.3849972686    0.6837133484    0.8028130116
C        1.9785459958    0.5045300927    0.7188300638
C        4.1654245555   -0.2759751355    1.4922480308
C        3.5653041971   -1.3516353109    2.1227503359
C        2.1621975782   -1.5143082221    2.1051057014
C        1.4165079511   -0.5810326161    1.3977345290
H        0.7781842360   -4.0850308369   -1.4126614032
H        5.0577203579    1.9825454461    0.2836707728
H        4.1779581200   -2.0707976897    2.6593219234
H        5.2426495388   -0.1364582111    1.5384096315
H        3.5606613962    3.7161351025   -0.6358659450
H        1.5344667616    4.6877871931   -1.0481541769
H       -0.9177357836    4.6248096934   -1.0032337577
H       -2.8664214343    3.7687597385   -0.6729093079
H       -4.4260173133    1.9226644339   -0.2841663197
H       -4.6899200520   -2.4978315532   -0.1501773691
H       -1.2929647567   -5.4624637152   -1.1396153604
H       -3.3903023433   -4.2931254416   -0.5604649023
H       -4.9798172518   -0.0634988482   -0.0721096602
H        0.6649615990   -1.6831462880   -1.0049563508
H        0.3490528215   -0.5886650489    1.3214070642
H        1.7027167804   -2.3394988475    2.6407430433
42   
Frame 0-15 interpolated frame 9
C       -1.3985697454   -4.4392792782   -0.9435175146
C       -0.2234108806   -3.6951315166   -1.0575242137
C       -0.2649749195   -2.3264379498   -0.8479338680
C       -1.4061828537   -1.4557689829   -0.5144764971
C       -2.5924005804   -2.3367980565   -0.4631785786
C       -2.5423830697   -3.7419303412   -0.6517564478
C       -3.8853481426   -1.8096241035   -0.2678624259
C       -3.9989071975   -0.4841362532   -0.2229533639
C       -2.8920451985    0.3990136252   -0.2811671310
C       -1.4671820342    0.1019404332   -0.3089453558
C       -3.3458598986    1.7326385346   -0.3589841366
C       -2.4903803762    2.7431296227   -0.5341301241
C       -1.1005600789    2.5405041158   -0.4959005656
C       -0.4341785030    1.2790408132   -0.2357590373
C       -0.3538504505    3.7251210811   -0.7430870199
C        0.9913361648    3.8057611365   -0.7409152559
C        1.7198912243    2.6784801301   -0.3221772399
C        1.0686558529    1.4526685738    0.0267966366
C        3.1458642916    2.8400985620   -0.2213654537
C        4.0059554794    1.9142188886    0.2772918590
C        3.4307033147    0.7316629194    0.8078550963
C        2.0299984924    0.5282502114    0.7101174954
C        4.2230844452   -0.2312145428    1.4788701282
C        3.6353816649   -1.3338877810    2.0750220923
C        2.2355543109   -1.5254661558    2.0409666357
C        1.4830088755   -0.5835793333    1.3507823964
H        0.7084427206   -4.1952796903   -1.3096782858
H        5.0793333661    2.0770237588    0.3281173618
H        4.2569337993   -2.0554172185    2.5979635781
H        5.2972563738   -0.0744982728    1.5379978866
H        3.5453419407    3.7894701457   -0.5689942468
H        1.5159496339    4.7253657635   -0.9867699647
H       -0.9315457249    4.6165936931   -0.9742245858
H       -2.8535647774    3.7561374182   -0.6881590049
H       -4.4177924310    1.9111090921   -0.3419996627
H       -4.7455231023   -2.4718653878   -0.2150370093
H       -1.4061592002   -5.5157647334   -1.0891261935
H       -3.4830074350   -4.2821424258   -0.5779995649
H       -4.9854352204   -0.0336982882   -0.1490911638
H        0.6387238015   -1.7877013691   -0.9222735203
H        0.4188380670   -0.5944460882    1.2532063419
H        1.7890080013   -2.3741607500    2.5499999235
42   
Frame 0-15 interpolated frame 10
C       -1.4847346791   -4.4879704463   -0.9002510924
C       -0.2894023551   -3.7747228630   -0.9836661103
C       -0.3071218928   -2.4029551464   -0.7884908473
C       -1.4301058461   -1.4854555757   -0.5005515810
C       -2.6367724223   -2.3476654053   -0.4738110743
C       -2.6152127805   -3.7555657698   -0.6483249214
C       -3.9240824061   -1.8001524450   -0.3152319728
C       -4.0094905948   -0.4753345053   -0.2770981640
C       -2.8867923632    0.3865137908   -0.3127791836
C       -1.4587656610    0.0862603584   -0.3122788499
C       -3.3361567813    1.7197906930   -0.3972126206
C       -2.4794737113    2.7290719776   -0.5496010848
C       -1.0922897725    2.5273476964   -0.4895492389
C       -0.4157040817    1.2687608020   -0.2292290886
C       -0.3563631897    3.7226097415   -0.7161147654
C        0.9852339646    3.8293902460   -0.6965702531
C        1.7256825006    2.7089059112   -0.2868552958
C        1.0911189898    1.4669687156    0.0381501432
C        3.1484132327    2.8958536981   -0.1727924657
C        4.0294344930    1.9829616086    0.3130988577
C        3.4748979892    0.7783547616    0.8123427789
C        2.0804074035    0.5520815365    0.7003718439
C        4.2789730455   -0.1882737784    1.4636488242
C        3.7036085850   -1.3171770668    2.0233610003
C        2.3076322744   -1.5362646129    1.9717504782
C        1.5485514694   -0.5847657237    1.3004025228
H        0.6372655024   -4.3007275369   -1.2000094521
H        5.0985104760    2.1687624088    0.3737449246
H        4.3337210727   -2.0416745628    2.5317040418
H        5.3498172664   -0.0155884285    1.5362158847
H        3.5286997421    3.8599387501   -0.5008012013
H        1.4964747384    4.7609749009   -0.9247629354
H       -0.9450961216    4.6072468536   -0.9456483030
H       -2.8401647850    3.7429257460   -0.7039168333
H       -4.4080670147    1.8990163803   -0.4006490630
H       -4.7974424699   -2.4460689422   -0.2808497943
H       -1.5167937931   -5.5653212160   -1.0354821185
H       -3.5713058671   -4.2703782569   -0.5955662446
H       -4.9881995527   -0.0050805641   -0.2269584497
H        0.6088256588   -1.8879085239   -0.8338669919
H        0.4881249298   -0.5968124298    1.1817033907
H        1.8741448071   -2.4078727770    2.4524253061
42   
Frame 0-15 interpolated frame 11
C       -1.5691010064   -4.5335575697   -0.8533961286
C       -0.3557874342   -3.8503678695   -0.9041705111
C       -0.3507778435   -2.4759778961   -0.7242187476
C       -1.4536867007   -1.5144210727   -0.4846318947
C       -2.6794360315   -2.3579234994   -0.4835001528
C       -2.6853073689   -3.7679342968   -0.6434070876
C       -3.9602067990   -1.7907628003   -0.3632550019
C       -4.0180032171   -0.4671932686   -0.3318675357
C       -2.8805483337    0.3734635375   -0.3443895033
C       -1.4499776168    0.0700103765   -0.3146919803
C       -3.3253088648    1.7063788862   -0.4360776153
C       -2.4679323454    2.7144327686   -0.5655292011
C       -1.0837429396    2.5134423798   -0.4833591320
C       -0.3971248252    1.2577927648   -0.2224308577
C       -0.3588739998    3.7190388318   -0.6891328526
C        0.9784439036    3.8515129279   -0.6515566300
C        1.7307636703    2.7379531561   -0.2510335262
C        1.1131324544    1.4805682454    0.0494458944
C        3.1497645599    2.9495205471   -0.1232888171
C        4.0510653216    2.0496552953    0.3497288088
C        3.5176855537    0.8237185906    0.8161605156
C        2.1298366699    0.5760313680    0.6894283588
C        4.3331927651   -0.1472921403    1.4462509040
C        3.7699932184   -1.3016050223    1.9671286654
C        2.3783797257   -1.5466803332    1.8966905726
C        1.6131611273   -0.5844444529    1.2460846700
H        0.5646598615   -4.4010690994   -1.0825727661
H        5.1153463477    2.2577174372    0.4206912933
H        4.4083141842   -2.0297526179    2.4597240426
H        5.4004818487    0.0400405887    1.5327751128
H        3.5107553596    3.9275826549   -0.4309911705
H        1.4759905698    4.7946238344   -0.8618717608
H       -0.9584151613    4.5967198962   -0.9173800643
H       -2.8261477407    3.7290984811   -0.7202699081
H       -4.3967950013    1.8863777887   -0.4603861965
H       -4.8457417616   -2.4205524032   -0.3478983660
H       -1.6247310460   -5.6111884196   -0.9780427001
H       -3.6551705006   -4.2581003059   -0.6131009596
H       -4.9881446080    0.0223183695   -0.3060893184
H        0.5750358100   -1.9832081908   -0.7389132886
H        0.5569602478   -0.5953764299    1.1063700796
H        1.9579979469   -2.4405910381    2.3469747568
42   
Frame 0-15 interpolated frame 12
C       -1.6515561143   -4.5759803647   -0.8022279301
C       -0.4225538271   -3.9217882136   -0.8180082870
C       -0.3960949427   -2.5451625709   -0.6543080273
C       -1.4771120573   -1.5426485072   -0.4663850590
C       -2.7205103974   -2.3675960550   -0.4921278754
C       -2.7526445218   -3.7791318422   -0.6367022927
C       -3.9937661698   -1.7815428425   -0.4121552516
C       -4.0244699027   -0.4597618179   -0.3875471032
C       -2.8733299163    0.3598242357   -0.3761122344
C       -1.4408929618    0.0531250416   -0.3160652014
C       -3.3132684813    1.6923618323   -0.4757807369
C       -2.4557001202    2.6991474323   -0.5819924525
C       -1.0749018723    2.4986689302   -0.4772736892
C       -0.3784034346    1.2460062822   -0.2152776344
C       -0.3614009215    3.7143203305   -0.6619855153
C        0.9709229333    3.8720863584   -0.6056215432
C        1.7351320173    2.7655941768   -0.2145334340
C        1.1347433662    1.4934035497    0.0607148676
C        3.1499358610    3.0010873730   -0.0726110242
C        4.0709143790    2.1142252647    0.3873146884
C        3.5591835647    0.8676568177    0.8191558371
C        2.1783658396    0.6001178124    0.6770670565
C        4.3858447892   -0.1084647326    1.4262363063
C        3.8345097383   -1.2873110472    1.9054792202
C        2.4477055027   -1.5566761561    1.8147706387
C        1.6768660570   -0.5824014312    1.1871577651
H        0.4906102641   -4.4958632750   -0.9559446982
H        5.1299282293    2.3438147268    0.4691451802
H        4.4806559902   -2.0199011141    2.3809387495
H        5.4494021008    0.0920627405    1.5272971826
H        3.4915123108    3.9924213061   -0.3591703463
H        1.4544160413    4.8262977778   -0.7977535962
H       -0.9715372206    4.5849206966   -0.8892631715
H       -2.8114068818    3.7146045053   -0.7373247245
H       -4.3838928778    1.8731689207   -0.5215581270
H       -4.8904501642   -2.3954470922   -0.4165465974
H       -1.7297702221   -5.6533793795   -0.9159551091
H       -3.7345042395   -4.2456245533   -0.6305073855
H       -4.9852634597    0.0484432629   -0.3869643461
H        0.5369855444   -2.0728469442   -0.6363547281
H        0.6254224100   -0.5895865992    1.0265171747
H        2.0403737676   -2.4722448356    2.2322634550
42   
Frame 10-17 interpolated frame 13
C       -1.7485639740   -4.6255887725   -0.7405979889
C       -0.5034977192   -4.0051597722   -0.7135200516
C       -0.4551373207   -2.6269838513   -0.5688837892
C       -1.5038335215   -1.5799053787   -0.4431124287
C       -2.7682857206   -2.3811128831   -0.5013017472
C       -2.8301865285   -3.7938692211   -0.6283516107
C       -4.0302714388   -1.7726893304   -0.4689140230
C       -4.0268549402   -0.4540866177   -0.4512068831
C       -2.8593552928    0.3383224455   -0.4111863786
C       -1.4250221470    0.0270858624   -0.3155147736
C       -3.2931639158    1.6704660124   -0.5200086459
C       -2.4375257366    2.6763374804   -0.5989846255
C       -1.0614237965    2.4763712644   -0.4681902988
C       -0.3515869813    1.2276862668   -0.2050453109
C       -0.3635400917    3.7047670022   -0.6281550796
C        0.9615269215    3.8950672238   -0.5497388761
C        1.7419716043    2.7988202370   -0.1701573136
C        1.1635055606    1.5098153460    0.0745522527
C        3.1515715174    3.0623617247   -0.0108522348
C        4.0957687109    2.1909453392    0.4337801135
C        3.6103540421    0.9210255544    0.8230101628
C        2.2386426243    0.6357945074    0.6605405444
C        4.4457259850   -0.0652769657    1.4013729558
C        3.9008204898   -1.2699788355    1.8258884922
C        2.5186615665   -1.5602950323    1.7074695107
C        1.7511851724   -0.5642721234    1.1093006136
H        0.3998009322   -4.6040746924   -0.8026902452
H        5.1479675969    2.4451966846    0.5289003772
H        4.5517097285   -2.0119085408    2.2798396430
H        5.5054146227    0.1442658778    1.5221799546
H        3.4697039378    4.0684210449   -0.2717757539
H        1.4257395582    4.8627707751   -0.7206413557
H       -0.9877157348    4.5656727203   -0.8542177265
H       -2.7910466603    3.6925168611   -0.7545657739
H       -4.3623238480    1.8518314734   -0.5905137830
H       -4.9397390289   -2.3667672994   -0.4967214153
H       -1.8531990798   -5.7019346533   -0.8419690646
H       -3.8240191888   -4.2335366676   -0.6517842787
H       -4.9744910251    0.0774088590   -0.4796758332
H        0.4817775348   -2.1754057311   -0.5118975723
H        0.7089281248   -0.5519556734    0.9216006620
H        2.1200074601   -2.4981485209    2.0817395796
42   
Frame 10-17 interpolated frame 14
C       -1.8207990015   -4.6572741016   -0.6782475941
C       -0.5664296750   -4.0605848796   -0.6113525597
C       -0.5008185705   -2.6805600740   -0.4859493349
C       -1.5266675118   -1.6031993064   -0.4190437127
C       -2.8037102473   -2.3880593599   -0.5065751670
C       -2.8870588657   -3.8013242199   -0.6161408288
C       -4.0566134788   -1.7641055004   -0.5186783780
C       -4.0296035406   -0.4480631083   -0.5080642281
C       -2.8519567361    0.3255358606   -0.4426777758
C       -1.4177427842    0.0112098288   -0.3142776308
C       -3.2805096117    1.6572506694   -0.5613559012
C       -2.4251778642    2.6614775107   -0.6169982571
C       -1.0532365754    2.4611415711   -0.4630529028
C       -0.3349035575    1.2152144121   -0.1975425601
C       -0.3663126901    3.6981582316   -0.6019871463
C        0.9525329618    3.9106471759   -0.5034498891
C        1.7436959414    2.8208877081   -0.1336136823
C        1.1819962025    1.5191714759    0.0850895759
C        3.1483193218    3.1053889470    0.0403744426
C        4.1097657296    2.2458369036    0.4714845982
C        3.6459596510    0.9578007581    0.8228197883
C        2.2813679616    0.6565125303    0.6449481476
C        4.4925239989   -0.0343119252    1.3739707570
C        3.9598356416   -1.2606218490    1.7520881656
C        2.5832911981   -1.5711453450    1.6115552444
C        1.8091399395   -0.5620414712    1.0419366762
H        0.3276564718   -4.6782798421   -0.6544361974
H        5.1561063254    2.5187841423    0.5783382209
H        4.6184436157   -2.0079620632    2.1855314398
H        5.5483516345    0.1854631396    1.5092391286
H        3.4479514623    4.1226382597   -0.1980024586
H        1.4032666070    4.8877375145   -0.6559464944
H       -0.9995240665    4.5524609409   -0.8279630061
H       -2.7757125599    3.6784977833   -0.7738364293
H       -4.3477320149    1.8397070158   -0.6545154434
H       -4.9740391886   -2.3443652217   -0.5675878471
H       -1.9438430334   -5.7327079888   -0.7676153988
H       -3.8880694589   -4.2218855568   -0.6670141696
H       -4.9669833056    0.0992106514   -0.5635506237
H        0.4368673197   -2.2427194488   -0.3924731765
H        0.7719378031   -0.5428417138    0.8359573237
H        2.1984345512   -2.5286800554    1.9486152847
42   
Frame 12-20 interpolated frame 15
C       -1.8969717902   -4.6865130577   -0.6015675409
C       -0.6361358945   -4.1123922131   -0.4824254723
C       -0.5579261086   -2.7302135446   -0.3796977869
C       -1.5584126840   -1.6285308915   -0.3874174027
C       -2.8463089170   -2.3951363149   -0.5117769825
C       -2.9477755199   -3.8088552278   -0.6012448639
C       -4.0874259142   -1.7548995207   -0.5780274282
C       -4.0336527137   -0.4417904369   -0.5741611437
C       -2.8451009071    0.3100123635   -0.4775521892
C       -1.4124534718   -0.0093627144   -0.3100413584
C       -3.2657092138    1.6415260545   -0.6081670854
C       -2.4095117744    2.6418725455   -0.6368169802
C       -1.0432458645    2.4381038012   -0.4563498112
C       -0.3149105270    1.1951506839   -0.1873168878
C       -0.3692434119    3.6844406709   -0.5721001685
C        0.9414517841    3.9220259766   -0.4507884299
C        1.7455410175    2.8404867846   -0.0923323037
C        1.2046150690    1.5245472958    0.0969157143
C        3.1439797228    3.1495332090    0.0987191555
C        4.1256628953    2.3047087786    0.5149413289
C        3.6887312031    0.9967335219    0.8213743063
C        2.3332318444    0.6795282940    0.6248476062
C        4.5465687950   -0.0027238109    1.3399909726
C        4.0245279884   -1.2511298096    1.6609053833
C        2.6545181441   -1.5819289290    1.4910290053
C        1.8752067734   -0.5557697325    0.9556421686
H        0.2470382973   -4.7470821501   -0.4667397623
H        5.1645562574    2.5994690088    0.6356453179
H        4.6902356016   -2.0059604288    2.0698532716
H        5.5980595029    0.2256615306    1.4936410758
H        3.4212950894    4.1788207154   -0.1136084073
H        1.3759095589    4.9094319645   -0.5827212697
H       -1.0127279971    4.5309658927   -0.7983353599
H       -2.7544983301    3.6605258686   -0.7953770315
H       -4.3297467359    1.8270304374   -0.7279650105
H       -5.0126476318   -2.3197855856   -0.6531006374
H       -2.0371488660   -5.7608792094   -0.6774428527
H       -3.9532330991   -4.2127758106   -0.6873276043
H       -4.9579611948    0.1232610946   -0.6616618229
H        0.3724254669   -2.2965385853   -0.2357278926
H        0.8445067710   -0.5210406395    0.7232193841
H        2.2846867848   -2.5605278795    1.7810667961
42   
Frame 12-20 interpolated frame 16
C       -1.9488563905   -4.7030904794   -0.5303754367
C       -0.6863665836   -4.1429767455   -0.3729968082
C       -0.5949839164   -2.7591906289   -0.2924473972
C       -1.5766322647   -1.6407988045   -0.3601304708
C       -2.8696416385   -2.3976357255   -0.5118199697
C       -2.9859714870   -3.8112736697   -0.5813182540
C       -4.1017926162   -1.7484353519   -0.6226603381
C       -4.0330153712   -0.4374902484   -0.6272614259
C       -2.8401288770    0.3026995356   -0.5072432361
C       -1.4099974234   -0.0180798903   -0.3078464267
C       -3.2562759286    1.6335717013   -0.6490474064
C       -2.4007360002    2.6326342412   -0.6563635887
C       -1.0386561953    2.4284958172   -0.4540341095
C       -0.3055124086    1.1873425063   -0.1817727697
C       -0.3726154147    3.6805855699   -0.5501494744
C        0.9323043957    3.9324438698   -0.4087786393
C        1.7432546042    2.8544122594   -0.0596910389
C        1.2151181044    1.5293717003    0.1047911993
C        3.1368720881    3.1776589661    0.1451117217
C        4.1304213601    2.3405069357    0.5479352081
C        3.7111576126    1.0191466632    0.8164621079
C        2.3612244334    0.6898084238    0.6068974324
C        4.5808413812    0.0155479342    1.3059046800
C        4.0736173894   -1.2497872701    1.5817415525
C        2.7097960935   -1.5963229455    1.3918826629
C        1.9190807817   -0.5612475987    0.8880949671
H        0.1862809970   -4.7894339315   -0.3108384889
H        5.1642036043    2.6479703326    0.6801629395
H        4.7480990125   -2.0085794798    1.9683554514
H        5.6286498198    0.2525097645    1.4711943304
H        3.4000574792    4.2149714443   -0.0449368741
H        1.3572841689    4.9261331180   -0.5231855804
H       -1.0213512690    4.5229241396   -0.7770073827
H       -2.7428431733    3.6519669822   -0.8167877444
H       -4.3174947791    1.8197727783   -0.7906953142
H       -5.0302695538   -2.3049483454   -0.7173140442
H       -2.1010644705   -5.7766792397   -0.5926481424
H       -3.9933962408   -4.2035588032   -0.6939340882
H       -4.9486916797    0.1367515419   -0.7415034141
H        0.3313038457   -2.3322185954   -0.1154130207
H        0.8912781595   -0.5246644420    0.6446950910
H        2.3554483509   -2.5908140299    1.6449715405
42   
Frame 12-20 interpolated frame 17
C       -1.9924595030   -4.7141285883   -0.4560169109
C       -0.7310289443   -4.1639923024   -0.2622135344
C       -0.6278232759   -2.7789557862   -0.2047955629
C       -1.5921680376   -1.6487294593   -0.3318674035
C       -2.8875284675   -2.3988038458   -0.5093012216
C       -3.0164339499   -3.8121122685   -0.5578856058
C       -4.1108757563   -1.7435034723   -0.6640900590
C       -4.0306494274   -0.4343820430   -0.6780166947
C       -2.8357187561    0.2975304157   -0.5359512418
C       -1.4089833782   -0.0236320282   -0.3055481215
C       -3.2479804101    1.6276350060   -0.6893156248
C       -2.3935609905    2.6259556482   -0.6762962089
C       -1.0355590376    2.4219296411   -0.4528292534
C       -0.2991347966    1.1821830708   -0.1772712426
C       -0.3762058770    3.6786892356   -0.5298182505
C        0.9233774968    3.9415777530   -0.3685537227
C        1.7396717060    2.8657212707   -0.0287635057
C        1.2223303693    1.5331362624    0.1113670521
C        3.1288096651    3.2000423145    0.1894003980
C        4.1319438788    2.3683898723    0.5787848063
C        3.7281808939    1.0356689614    0.8095505647
C        2.3830622447    0.6961504061    0.5877223943
C        4.6094107093    0.0284442236    1.2693407458
C        4.1173751131   -1.2516404618    1.5007751850
C        2.7597027389   -1.6116131873    1.2918298307
C        1.9565389087   -0.5693461352    0.8204328199
H        0.1307417022   -4.8191344975   -0.1543486558
H        5.1611715375    2.6858223168    0.7223880141
H        4.8006526416   -2.0138409808    1.8645480963
H        5.6537112199    0.2730162894    1.4453189536
H        3.3800451002    4.2441151385    0.0215383790
H        1.3406048761    4.9403649630   -0.4657409246
H       -1.0286868165    4.5179344693   -0.7573930467
H       -2.7332234919    3.6457846781   -0.8387505769
H       -4.3061057551    1.8140422080   -0.8521815199
H       -5.0408103838   -2.2940763816   -0.7772027914
H       -2.1544494347   -5.7870092306   -0.5039302924
H       -4.0240095333   -4.1957349273   -0.6959700415
H       -4.9386201366    0.1462017751   -0.8185942003
H        0.2932424001   -2.3565713408    0.0028913338
H        0.9307366508   -0.5330469070    0.5685804526
H        2.4207063070   -2.6200820758    1.5081771878
42   
Frame 15-26 interpolated frame 18
C       -2.0291757973   -4.7200593310   -0.3771217142
C       -0.7714403298   -4.1759414954   -0.1474820824
C       -0.6579033884   -2.7900882223   -0.1144696627
C       -1.6061318963   -1.6528942368   -0.3020510795
C       -2.9012429605   -2.3988948330   -0.5043406441
C       -3.0404981033   -3.8116486082   -0.5307646708
C       -4.1157023786   -1.7400807779   -0.7034251106
C       -4.0269167703   -0.4324342614   -0.7276042196
C       -2.8318794636    0.2940958992   -0.5642723605
C       -1.4094710680   -0.0266643101   -0.3030914809
C       -3.2405171585    1.6233190369   -0.7296995830
C       -2.3875730343    2.6212574714   -0.6968380294
C       -1.0336842213    2.4175534482   -0.4525100090
C       -0.2952250383    1.1788647214   -0.1735794957
C       -0.3800380636    3.6781051848   -0.5105076455
C        0.9145095794    3.9493273941   -0.3291878732
C        1.7349854320    2.8745709259    0.0011600125
C        1.2269929474    1.5356386620    0.1168439077
C        3.1198988558    3.2174633997    0.2326586593
C        4.1308468763    2.3895121664    0.6083779645
C        3.7410505063    1.0470361120    0.8007077659
C        2.4002312900    0.6990309280    0.5668139536
C        4.6335607812    0.0366257604    1.2299536993
C        4.1569956594   -1.2563531140    1.4163995157
C        2.8055149341   -1.6276827623    1.1881846755
C        1.9891124467   -0.5797053644    0.7503774620
H        0.0790063170   -4.8367127023    0.0066092971
H        5.1559514121    2.7146947944    0.7634781621
H        4.8489831125   -2.0215729893    1.7565299089
H        5.6744187731    0.2879279388    1.4163197911
H        3.3608838383    4.2672907996    0.0873260468
H        1.3253481439    4.9522682736   -0.4091146596
H       -1.0350153961    4.5151921839   -0.7388370940
H       -2.7249868034    3.6414757538   -0.8614996175
H       -4.2951969929    1.8096042495   -0.9135821014
H       -5.0455010665   -2.2868684171   -0.8343478465
H       -2.1988404195   -5.7922996599   -0.4096924442
H       -4.0464315084   -4.1895700689   -0.6939611063
H       -4.9278536462    0.1520385994   -0.8946484180
H        0.2563456501   -2.3696279283    0.1228690188
H        0.9647212295   -0.5452820085    0.4911979672
H        2.4818677197   -2.6485126122    1.3668211408
42   
Frame 15-26 interpolated frame 19
C       -2.0582046455   -4.7213755154   -0.2958074723
C       -0.8059605000   -4.1798974191   -0.0334939483
C       -0.6831263065   -2.7936600926   -0.0255908318
C       -1.6166771086   -1.6532558444   -0.2717110226
C       -2.9095156924   -2.3980254530   -0.4965407080
C       -3.0573633496   -3.8099937014   -0.4999675681
C       -4.1154574336   -1.7384574440   -0.7385963654
C       -4.0213491498   -0.4319132889   -0.7741780379
C       -2.8281422483    0.2924671504   -0.5914337124
C       -1.4106534528   -0.0266304376   -0.3008100987
C       -3.2339822367    1.6206643549   -0.7691308581
C       -2.3831775453    2.6190616214   -0.7175357119
C       -1.0331616156    2.4165786782   -0.4531724438
C       -0.2940547786    1.1786017527   -0.1710832430
C       -0.3840288873    3.6800169636   -0.4925713970
C        0.9060785522    3.9566717706   -0.2914853839
C        1.7293880270    2.8816792459    0.0293943362
C        1.2285620363    1.5378806451    0.1209298485
C        3.1106125173    3.2300411167    0.2738047048
C        4.1272201783    2.4034119611    0.6356593259
C        3.7488539767    1.0530923856    0.7898848668
C        2.4115010214    0.6985959837    0.5446099797
C        4.6518597249    0.0396799642    1.1884449977
C        4.1903910321   -1.2640027761    1.3307858751
C        2.8447363160   -1.6443086288    1.0845402838
C        2.0150623911   -0.5919890039    0.6806263055
H        0.0332562818   -4.8433653627    0.1649870088
H        5.1489263771    2.7336934732    0.8020309556
H        4.8908279492   -2.0317878272    1.6470128350
H        5.6896041725    0.2965497872    1.3843871784
H        3.3436424661    4.2845298147    0.1509465212
H        1.3121412413    4.9627657555   -0.3543584107
H       -1.0401968977    4.5159944464   -0.7215408170
H       -2.7190967074    3.6393969585   -0.8845154717
H       -4.2850957148    1.8060869045   -0.9731890164
H       -5.0437049017   -2.2837435942   -0.8857974911
H       -2.2339531393   -5.7930058423   -0.3122224584
H       -4.0604298448   -4.1847547255   -0.6864727912
H       -4.9163195006    0.1537806953   -0.9670475292
H        0.2243023939   -2.3741450761    0.2379887722
H        0.9913418603   -0.5614854335    0.4162644476
H        2.5353431414   -2.6754439623    1.2259545463
42   
Frame 15-26 interpolated frame 20
C       -2.0803711451   -4.7180864611   -0.2107238535
C       -0.8355089268   -4.1757182242    0.0823300691
C       -0.7047965730   -2.7896170224    0.0640635064
C       -1.6249542399   -1.6500975731   -0.2403024375
C       -2.9134479295   -2.3962876964   -0.4859959322
C       -3.0679437981   -3.8072399679   -0.4652728450
C       -4.1110474008   -1.7385676676   -0.7706026732
C       -4.0143486988   -0.4327761875   -0.8187911165
C       -2.8246829887    0.2923865063   -0.6179850549
C       -1.4127966934   -0.0240345795   -0.2986582677
C       -3.2282303049    1.6194217309   -0.8082934359
C       -2.3800634241    2.6188982468   -0.7386402226
C       -1.0338154440    2.4182209912   -0.4546660016
C       -0.2952553907    1.1806253295   -0.1695919088
C       -0.3882032150    3.6837607200   -0.4755636332
C        0.8979205008    3.9632816031   -0.2547113762
C        1.7229431275    2.8869258958    0.0565071448
C        1.2275829860    1.5394779827    0.1237959939
C        3.1009183096    3.2381223412    0.3136988979
C        4.1214247059    2.4107936156    0.6613373093
C        3.7525261131    1.0542370121    0.7771036482
C        2.4180100133    0.6950909167    0.5206476208
C        4.6653339940    0.0379997444    1.1444479727
C        4.2186648863   -1.2744650031    1.2424922317
C        2.8785947839   -1.6615082253    0.9784454421
C        2.0356978238   -0.6060741902    0.6091208848
H       -0.0074603730   -4.8388569239    0.3246339831
H        5.1403236649    2.7438897887    0.8389623031
H        4.9272166062   -2.0444805461    1.5342871502
H        5.7001622783    0.2993774312    1.3496793814
H        3.3278976407    4.2963354133    0.2136003657
H        1.3005763133    4.9716656420   -0.3004630660
H       -1.0444056859    4.5195726945   -0.7050325557
H       -2.7149684959    3.6391616623   -0.9080820536
H       -4.2755703944    1.8034343588   -1.0320696286
H       -5.0364143570   -2.2844546102   -0.9329522823
H       -2.2604949720   -5.7891177177   -0.2099569333
H       -4.0668141795   -4.1815409462   -0.6739400521
H       -4.9041976280    0.1517206341   -1.0373068610
H        0.1951843932   -2.3692388275    0.3519117292
H        1.0122054919   -0.5810783017    0.3404514188
H        2.5826086257   -2.7011595896    1.0820851382
42   
Frame 15-26 interpolated frame 21
C       -2.0957194582   -4.7100871701   -0.1215031099
C       -0.8599933015   -4.1633128334    0.2002769784
C       -0.7229332262   -2.7779204355    0.1546513225
C       -1.6310454635   -1.6434188607   -0.2077755410
C       -2.9132008707   -2.3936543498   -0.4725737901
C       -3.0723638416   -3.8033365703   -0.4264014052
C       -4.1026625207   -1.7404161477   -0.7993871680
C       -4.0060058315   -0.4350562340   -0.8615336006
C       -2.8215213506    0.2937981631   -0.6440610166
C       -1.4158928339   -0.0189320736   -0.2967313186
C       -3.2232609880    1.6195284939   -0.8473415166
C       -2.3782101921    2.6207055972   -0.7602285850
C       -1.0356297765    2.4224154704   -0.4569784192
C       -0.2987803041    1.1848668132   -0.1691496551
C       -0.3925688965    3.6892986180   -0.4593606580
C        0.8900249309    3.9691566366   -0.2186815729
C        1.7156630217    2.8903140340    0.0826099384
C        1.2241128891    1.5403851709    0.1254190754
C        3.0908294783    3.2417656600    0.3525160289
C        4.1135223401    2.4117260742    0.6854873185
C        3.7521540835    1.0504900208    0.7622951245
C        2.4198648471    0.6884996783    0.4947270453
C        4.6740354428    0.0315811512    1.0978661268
C        4.2418494066   -1.2877892717    1.1512226277
C        2.9071121619   -1.6793627935    0.8694496666
C        2.0511785906   -0.6220217850    0.5353940873
H       -0.0429213136   -4.8230162542    0.4859075897
H        5.1302071106    2.7454017518    0.8743821221
H        4.9581544559   -2.0596932348    1.4180437861
H        5.7061305858    0.2964349318    1.3122468018
H        3.3136345163    4.3028040161    0.2755704794
H        1.2906196859    4.9789962913   -0.2471342323
H       -1.0476745894    4.5258872418   -0.6891276312
H       -2.7125652092    3.6407124109   -0.9322850247
H       -4.2666301570    1.8015838416   -1.0904297013
H       -5.0238816620   -2.2889805896   -0.9757156535
H       -2.2785375785   -5.7804947691   -0.1023964682
H       -4.0657748395   -4.1799140018   -0.6560148263
H       -4.8915751981    0.1458342420   -1.1055807850
H        0.1690661210   -2.3548466692    0.4648766447
H        1.0275974357   -0.6041869919    0.2628764342
H        2.6235922992   -2.7257452732    0.9345724807
42   
Frame 15-26 interpolated frame 22
C       -2.1040959136   -4.6970953626   -0.0277652104
C       -0.8791582699   -4.1423601510    0.3205627949
C       -0.7374277633   -2.7583126247    0.2462378201
C       -1.6349801546   -1.6331055002   -0.1741052448
C       -2.9088338274   -2.3900242569   -0.4561009877
C       -3.0705886388   -3.7981399413   -0.3830106861
C       -4.0904140077   -1.7439891734   -0.8248044970
C       -3.9964066996   -0.4387831793   -0.9024276140
C       -2.8187205893    0.2967035638   -0.6697838410
C       -1.4199841344   -0.0113102913   -0.2951492155
C       -3.2191288946    1.6209767314   -0.8864176195
C       -2.3776426226    2.6244753201   -0.7823921293
C       -1.0386284297    2.4291486195   -0.4601329288
C       -0.3046578987    1.1912985442   -0.1698387795
C       -0.3971387879    3.6966139177   -0.4438905869
C        0.8823802323    3.9742347845   -0.1832765393
C        1.7075094165    2.8917526888    0.1077556647
C        1.2181226423    1.5404939877    0.1257385152
C        3.0803010484    3.2408787777    0.3903565371
C        4.1034570649    2.4061018223    0.7081160298
C        3.7476691051    1.0417382360    0.7453583830
C        2.4170062524    0.6786778149    0.4666322772
C        4.6778835895    0.0203236018    1.0486072138
C        4.2599154255   -1.3040986041    1.0567580549
C        2.9302703397   -1.6980263787    0.7572151381
C        2.0615585893   -0.6400313527    0.4590428574
H       -0.0727269318   -4.7953991858    0.6490322138
H        5.1185235341    2.7381200695    0.9083219745
H        4.9836121089   -2.0775038402    1.2980834181
H        5.7074038433    0.2876718422    1.2721235009
H        3.3008190001    4.3038491705    0.3370476007
H        1.2822822339    4.9846905252   -0.1941522849
H       -1.0500024204    4.5349425931   -0.6736916101
H       -2.7118925707    3.6440448974   -0.9572252590
H       -4.2583396427    1.8005276662   -1.1484403863
H       -5.0062465169   -2.2973193423   -1.0138583576
H       -2.2878970253   -5.7668077253    0.0109859951
H       -4.0573155958   -4.1798128157   -0.6322239750
H       -4.8785547072    0.1360398630   -1.1719247183
H        0.1461502333   -2.3306587209    0.5769446075
H        1.0376973090   -0.6311942948    0.1827415843
H        2.6582200748   -2.7493322960    0.7829502901
42   
Frame 15-26 interpolated frame 23
C       -2.1051757859   -4.6786494653    0.0708641775
C       -0.8925989548   -4.1123228602    0.4433119504
C       -0.7480583499   -2.7303340991    0.3387802603
C       -1.6367527197   -1.6189386745   -0.1393017042
C       -2.9003323971   -2.3852179605   -0.4363714908
C       -3.0624556706   -3.7914049755   -0.3347056016
C       -4.0743644184   -1.7492423603   -0.8466252346
C       -3.9856499643   -0.4439750123   -0.9414316916
C       -2.8163949312    0.3011562404   -0.6952704809
C       -1.4251663147   -0.0010992404   -0.2940646786
C       -3.2159469742    1.6238085154   -0.9256578867
C       -2.3784274625    2.6302425055   -0.8052381530
C       -1.0428717363    2.4384430035   -0.4641883138
C       -0.3129836666    1.1999190557   -0.1717817055
C       -0.4019305107    3.7056979078   -0.4291322416
C        0.8749712485    3.9783866943   -0.1484422756
C        1.6983928294    2.8910545654    0.1319374191
C        1.2095062890    1.5396236082    0.1246540865
C        3.0692254120    3.2352311966    0.4272475871
C        4.0910578165    2.3936613593    0.7291660067
C        3.7388596550    1.0277513864    0.7261703501
C        2.4092280042    0.6653506088    0.4361275635
C        4.6766856158    0.0040523501    0.9966127171
C        4.2728068398   -1.3235803692    0.9589927379
C        2.9480532627   -1.7177388906    0.6415406101
C        2.0668252126   -0.6604584118    0.3797229588
H       -0.0963078185   -4.7553122432    0.8140731852
H        5.1051018497    2.7217448601    0.9407416248
H        5.0035647142   -2.0980114706    1.1743714986
H        5.7037477513    0.2730012433    1.2293710629
H        3.2893834570    4.2992188479    0.3981297796
H        1.2756129505    4.9885827502   -0.1413710170
H       -1.0513571911    4.5467713435   -0.6586369802
H       -2.7129906841    3.6491999995   -0.9830188673
H       -4.2508237927    1.8003129718   -1.2062438290
H       -4.9835739076   -2.3094652761   -1.0470214616
H       -2.2881648862   -5.7475330028    0.1307265635
H       -4.0412918414   -4.1811117863   -0.6019757757
H       -4.8652678149    0.1222158338   -1.2362969695
H        0.1267607288   -2.2961377901    0.6879879553
H        1.0426347120   -0.6627713977    0.0992888887
H        2.6864694443   -2.7721215607    0.6269573751
42   
Frame 21-49 interpolated frame 24
C       -2.0908233346   -4.6419249733    0.2101182123
C       -0.8962634011   -4.0542634790    0.6075299340
C       -0.7511786884   -2.6764567702    0.4596563190
C       -1.6339061478   -1.5884092510   -0.0933785739
C       -2.8798532227   -2.3738787645   -0.4037311510
C       -3.0382747964   -3.7768429419   -0.2607249353
C       -4.0463166373   -1.7576706617   -0.8669099784
C       -3.9714593903   -0.4517487231   -0.9887337341
C       -2.8174429042    0.3143047004   -0.7298961798
C       -1.4369566287    0.0230476234   -0.2963623708
C       -3.2176770396    1.6343896804   -0.9793936778
C       -2.3852511205    2.6461151717   -0.8390026204
C       -1.0533704369    2.4611206389   -0.4738197820
C       -0.3329190073    1.2207188222   -0.1794043338
C       -0.4093172136    3.7255014738   -0.4137103668
C        0.8658171734    3.9834466189   -0.1060074816
C        1.6823313439    2.8854708793    0.1602153961
C        1.1891968869    1.5363091847    0.1192585321
C        3.0511350882    3.2169566637    0.4726544203
C        4.0663752164    2.3619963362    0.7535086559
C        3.7138507066    0.9970999125    0.6973097352
C        2.3844205665    0.6350894516    0.3917673574
C        4.6633179158   -0.0265381348    0.9259629273
C        4.2855461794   -1.3575088798    0.8295659349
C        2.9690668291   -1.7537171349    0.4882944024
C        2.0663463066   -0.7051347283    0.2727612735
H       -0.1110330630   -4.6779705068    1.0320266770
H        5.0804571923    2.6799510215    0.9799745945
H        5.0287057248   -2.1287480350    1.0115005022
H        5.6861070718    0.2478627946    1.1710669421
H        3.2756594379    4.2804572880    0.4755157808
H        1.2726564330    4.9907110947   -0.0747569156
H       -1.0502667725    4.5733227160   -0.6422215306
H       -2.7212290317    3.6638129608   -1.0212906227
H       -4.2469737374    1.8056070374   -1.2828812285
H       -4.9443869591   -2.3319027604   -1.0777400298
H       -2.2696653336   -5.7093301114    0.3013135223
H       -4.0053186478   -4.1820658891   -0.5473270318
H       -4.8509954724    0.0965718894   -1.3159480634
H        0.1150814252   -2.2344307447    0.8291399889
H        1.0414432378   -0.7408834318   -0.0156284306
H        2.7233642510   -2.8104380386    0.4197279304
42   
Frame 21-49 interpolated frame 25
C       -2.0774525895   -4.6135713866    0.3067529783
C       -0.8966503615   -4.0086177605    0.7202043437
C       -0.7533904076   -2.6342391095    0.5426916896
C       -1.6318879187   -1.5692292257   -0.0603330331
C       -2.8652918837   -2.3671916876   -0.3797601993
C       -3.0192093899   -3.7673599227   -0.2080721698
C       -4.0255234804   -1.7653121507   -0.8788309394
C       -3.9597849164   -0.4594287277   -1.0193005546
C       -2.8159327072    0.3199303814   -0.7518407200
C       -1.4431770800    0.0350853092   -0.2961884097
C       -3.2159157246    1.6382913811   -1.0141485432
C       -2.3876625410    2.6534477014   -0.8600379809
C       -1.0588429293    2.4719505442   -0.4785661129
C       -0.3437733587    1.2302313805   -0.1831776555
C       -0.4138191288    3.7348334468   -0.4013186022
C        0.8594865421    3.9838507468   -0.0757889193
C        1.6726272576    2.8797511967    0.1799175782
C        1.1775241452    1.5324601474    0.1155363742
C        3.0403020198    3.2024200795    0.5035325857
C        4.0511809317    2.3379224905    0.7687717565
C        3.6985275418    0.9747466066    0.6756564628
C        2.3690188722    0.6171177505    0.3593195891
C        4.6527736891   -0.0507870353    0.8746818353
C        4.2857500067   -1.3804415939    0.7365419424
C        2.9728926249   -1.7717300866    0.3788744178
C        2.0610519525   -0.7254611141    0.1955219877
H       -0.1191292362   -4.6165764977    1.1804211543
H        5.0652664615    2.6483533329    1.0055347413
H        5.0336758447   -2.1522276990    0.8952151258
H        5.6736994008    0.2224792739    1.1287834983
H        3.2677149638    4.2650183013    0.5291734796
H        1.2690927022    4.9893352270   -0.0276736352
H       -1.0498297713    4.5866766597   -0.6286654970
H       -2.7243431817    3.6704082496   -1.0451284687
H       -4.2409779255    1.8060692884   -1.3335004991
H       -4.9155216182   -2.3492987477   -1.0970710689
H       -2.2517121063   -5.6796903040    0.4195263274
H       -3.9768533307   -4.1857526354   -0.5071391292
H       -4.8382978832    0.0766739903   -1.3688011896
H        0.1038716589   -2.1809690944    0.9241758773
H        1.0368691952   -0.7721350399   -0.0986994232
H        2.7336536597   -2.8270336669    0.2732090053
42   
Frame 21-49 interpolated frame 26
C       -2.0600117831   -4.5830376486    0.3990445647
C       -0.8929206072   -3.9596879257    0.8253216447
C       -0.7530028974   -2.5891146288    0.6194229540
C       -1.6287700558   -1.5496862323   -0.0289955292
C       -2.8494782844   -2.3603519954   -0.3553935063
C       -2.9974591281   -3.7574121794   -0.1560127195
C       -4.0040184284   -1.7734987223   -0.8872081310
C       -3.9480367541   -0.4678381468   -1.0460118659
C       -2.8143764408    0.3251079569   -0.7716771983
C       -1.4490995224    0.0464632011   -0.2960365630
C       -3.2142220287    1.6417869744   -1.0459526072
C       -2.3901252583    2.6603686774   -0.8794078526
C       -1.0641816158    2.4820952741   -0.4830257869
C       -0.3544767333    1.2389432895   -0.1870762430
C       -0.4179564497    3.7432535206   -0.3898073506
C        0.8537300060    3.9827852505   -0.0479264234
C        1.6633550764    2.8726423983    0.1976223176
C        1.1657767656    1.5277813168    0.1112627973
C        3.0302142019    3.1857538086    0.5313925748
C        4.0360649123    2.3113375658    0.7814620241
C        3.6822359826    0.9508541244    0.6538621644
C        2.3522931512    0.5991049700    0.3274680323
C        4.6397934149   -0.0767472929    0.8251479626
C        4.2810594933   -1.4034641236    0.6480191531
C        2.9709832809   -1.7877466297    0.2753021826
C        2.0521154175   -0.7434510249    0.1218195740
H       -0.1220566923   -4.5506869738    1.3177774648
H        5.0504262187    2.6134515741    1.0277207271
H        5.0323914192   -2.1761174727    0.7849848680
H        5.6592942277    0.1939383245    1.0877145986
H        3.2613005918    4.2468373635    0.5785735742
H        1.2663422561    4.9861605985    0.0160863484
H       -1.0489412356    4.5992046899   -0.6157227232
H       -2.7275793750    3.6765949520   -1.0671116116
H       -4.2352164968    1.8061636273   -1.3798040988
H       -4.8858103467   -2.3676175395   -1.1114349662
H       -2.2285795670   -5.6476663608    0.5327749487
H       -3.9455266259   -4.1900952344   -0.4651801958
H       -4.8258508415    0.0555412002   -1.4160007875
H        0.0952603353   -2.1231214158    1.0101717537
H        1.0288829483   -0.7987074484   -0.1782370256
H        2.7361774688   -2.8401216629    0.1350709560
42   
Frame 21-49 interpolated frame 27
C       -2.0391078789   -4.5505043262    0.4878720527
C       -0.8856956143   -3.9078928680    0.9242480371
C       -0.7503628509   -2.5415002938    0.6909254764
C       -1.6246447625   -1.5297888559    0.0009618023
C       -2.8325180939   -2.3533244192   -0.3306376819
C       -2.9733778492   -3.7469355331   -0.1043081179
C       -3.9818328112   -1.7821108033   -0.8926093953
C       -3.9361716087   -0.4768875304   -1.0695407963
C       -2.8127603912    0.3298856347   -0.7898001392
C       -1.4547442105    0.0572979589   -0.2959000903
C       -3.2125836149    1.6449098933   -1.0753658745
C       -2.3926427303    2.6669370809   -0.8974353473
C       -1.0694140031    2.4916940464   -0.4872546197
C       -0.3650758656    1.2470180896   -0.1910855033
C       -0.4217825548    3.7509308071   -0.3790091676
C        0.8484532204    3.9804866038   -0.0219866037
C        1.6544222562    2.8643586130    0.2136873368
C        1.1539219368    1.5224139381    0.1065190036
C        3.0207128637    3.1672685953    0.5567640324
C        4.0209359074    2.2826203993    0.7919739599
C        3.6650385260    0.9256486056    0.6318755850
C        2.3343694324    0.5810402633    0.2960709456
C        4.6246841961   -0.1041818300    0.7769429531
C        4.2722089355   -1.4266414782    0.5631067224
C        2.9642270983   -1.8022078248    0.1765188127
C        2.0400323795   -0.7595792380    0.0510364267
H       -0.1206100147   -4.4809279250    1.4460751278
H        5.0357881338    2.5757267345    1.0470469865
H        5.0258256873   -2.2004445759    0.6796052042
H        5.6431254042    0.1627159726    1.0474974075
H        3.2561436148    4.2263005436    0.6244782293
H        1.2642828519    4.9814621220    0.0571434910
H       -1.0476536504    4.6110626703   -0.6032631988
H       -2.7309475370    3.6824222140   -1.0876108978
H       -4.2296530638    1.8058954027   -1.4226128494
H       -4.8552847142   -2.3866747115   -1.1216160790
H       -2.2010558120   -5.6134030248    0.6421194643
H       -3.9117150805   -4.1947897266   -0.4215416337
H       -4.8135525552    0.0333036572   -1.4585349384
H        0.0889389473   -2.0616639902    1.0886343818
H        1.0178863054   -0.8215109843   -0.2548169999
H        2.7321895709   -2.8504299071    0.0038264948
42   
Frame 21-49 interpolated frame 28
C       -2.0151705305   -4.5160861880    0.5738697211
C       -0.8754297827   -3.8535178106    1.0179754097
C       -0.7457275787   -2.4916860037    0.7579910636
C       -1.6195709043   -1.5095368203    0.0297898067
C       -2.8144721306   -2.3460803311   -0.3054860247
C       -2.9472029632   -3.7358743150   -0.0527826773
C       -3.9589705157   -1.7910637826   -0.8954360209
C       -3.9241463215   -0.4865181833   -1.0903654757
C       -2.8110701683    0.3342963503   -0.8064887652
C       -1.4601239209    0.0676763175   -0.2957663529
C       -3.2109884392    1.6476812230   -1.1027921757
C       -2.3952168244    2.6731953607   -0.9143570665
C       -1.0745593825    2.5008512532   -0.4912956848
C       -0.3756073337    1.2545782217   -0.1951948890
C       -0.4253329069    3.7579899251   -0.3688086485
C        0.8435903974    3.9771233359    0.0023383933
C        1.6457611042    2.8550501647    0.2283676461
C        1.1419313015    1.5164589991    0.1013607573
C        3.0116803585    3.1471787671    0.5800276133
C        4.0057167141    2.2520327021    0.8005939413
C        3.6469657392    0.8992847825    0.6096595087
C        2.3153282338    0.5629090641    0.2650201213
C        4.6076501991   -0.1329265505    0.7297673299
C        4.2597151869   -1.4500227465    0.4811598239
C        2.9532608900   -1.8154309438    0.0817472582
C        2.0251557525   -0.7741953613   -0.0172914358
H       -0.1153784424   -4.4077281592    1.5667502782
H        5.0212316632    2.5355094341    1.0638886015
H        5.0146649182   -2.2252280144    0.5782075517
H        5.6253393699    0.1291480834    1.0078777380
H        3.2520474857    4.2036735851    0.6674355359
H        1.2628311744    4.9754342617    0.0959397213
H       -1.0459984948    4.6223667047   -0.5912002779
H       -2.7344557374    3.6879238779   -1.1069015234
H       -4.2242573446    1.8052624055   -1.4625200140
H       -4.8239429820   -2.4063407408   -1.1281725528
H       -2.1696985675   -5.5769829456    0.7483183789
H       -3.8756633463   -4.1996052946   -0.3762924511
H       -4.8013165546    0.0100436719   -1.4971099344
H        0.0846603011   -1.9971462640    1.1606817090
H        1.0041735095   -0.8412198449   -0.3288892254
H        2.7225968733   -2.8584781911   -0.1216167128
42   
Frame 21-49 interpolated frame 29
C       -1.9885102450   -4.4798555702    0.6575051905
C       -0.8624620979   -3.7967618777    1.1072387265
C       -0.7392941760   -2.4398784752    0.8212122400
C       -1.6135882566   -1.4889253082    0.0576827502
C       -2.7953760539   -2.3385948018   -0.2799260796
C       -2.9190970364   -3.7241787545   -0.0013041193
C       -3.9354232990   -1.8002942627   -0.8959787902
C       -3.9119215799   -0.4966902438   -1.1088336874
C       -2.8092925401    0.3383617586   -0.8219455241
C       -1.4652468210    0.0776626509   -0.2956201964
C       -3.2094256926    1.6501128513   -1.1285299920
C       -2.3978478201    2.6791726034   -0.9303506450
C       -1.0796308923    2.5096440849   -0.4951828212
C       -0.3860989087    1.2617148980   -0.1993957490
C       -0.4286308670    3.7645225381   -0.3591249341
C        0.8390947174    3.9728179324    0.0252717480
C        1.6373212564    2.8448251298    0.2418494762
C        1.1297814536    1.5099899234    0.0958285034
C        3.0030272842    3.1256368578    0.6014627496
C        3.9903420366    2.2197622513    0.8075342075
C        3.6280305333    0.8718724317    0.5871871290
C        2.2952228899    0.5446974770    0.2342337816
C        4.5888301568   -0.1628653256    0.6834021194
C        4.2439508496   -1.4736478294    0.4017024176
C        2.9385525293   -1.8276525520   -0.0095921028
C        2.0077442739   -0.7875620003   -0.0835153690
H       -0.1068064955   -4.3313891943    1.6808668437
H        5.0066570888    2.4930360715    1.0785238261
H        4.9994045179   -2.2504847022    0.4801518697
H        5.6060285706    0.0934771176    0.9686723260
H        3.2488659204    4.1791452030    0.7078472010
H        1.2619286838    4.9682178841    0.1327957893
H       -1.0439941526    4.6332022007   -0.5794762383
H       -2.7381091095    3.6931217272   -1.1251928865
H       -4.2190045958    1.8042575836   -1.4999651406
H       -4.7917687357   -2.4265189521   -1.1315111492
H       -2.1349101950   -5.5384493787    0.8519268262
H       -3.8375323081   -4.2043603457   -0.3294849922
H       -4.7890699848   -0.0141845109   -1.5322422409
H        0.0822217628   -1.9299652434    1.2271552156
H        0.9879662612   -0.8583405726   -0.4008036191
H        2.7080710768   -2.8646512753   -0.2420746601
42   
Frame 21-49 interpolated frame 30
C       -1.9593556380   -4.4418561983    0.7391299485
C       -0.8470505477   -3.7377666375    1.1925926954
C       -0.7312181651   -2.3862283976    0.8810389822
C       -1.6067250725   -1.4679471711    0.0847930542
C       -2.7752507343   -2.3308450155   -0.2539432379
C       -2.8891729076   -3.7118029902    0.0502292957
C       -3.9111778009   -1.8097523045   -0.8944530290
C       -3.8994625975   -0.5073759772   -1.1252036013
C       -2.8074158146    0.3420950450   -0.8363202694
C       -1.4701179921    0.0873046089   -0.2954455549
C       -3.2078858813    1.6522096629   -1.1528049037
C       -2.4005345758    2.6848873460   -0.9455526285
C       -1.0846370199    2.5181288817   -0.4989432413
C       -0.3965711787    1.2684958005   -0.2036803556
C       -0.4316913592    3.7705959187   -0.3499009042
C        0.8349323724    3.9676609173    0.0469779833
C        1.6290646777    2.8337627549    0.2542717238
C        1.1174535083    1.5030607780    0.0899530785
C        2.9946840438    3.1027544116    0.6212784955
C        3.9747560887    2.1859484579    0.8129552376
C        3.6082356747    0.8434919691    0.5644395000
C        2.2740898491    0.5263936759    0.2036506825
C        4.5683196579   -0.1939144198    0.6376843076
C        4.2251900478   -1.4975510175    0.3243768219
C        2.9204534410   -1.8390548949   -0.0979383396
C        1.9879926467   -0.7998803563   -0.1479037549
H       -0.0952356365   -4.2521273166    1.7892279959
H        4.9919801274    2.4484818619    1.0911626640
H        4.9804092990   -2.2762317914    0.3849573100
H        5.5852507004    0.0558817618    0.9297457769
H        3.2464867769    4.1528530982    0.7460126231
H        1.2615332414    4.9599171828    0.1679481046
H       -1.0416504530    4.6436312463   -0.5680533848
H       -2.7419098611    3.6980281310   -1.1426481793
H       -4.2138745818    1.8028704365   -1.5352812488
H       -4.7587394285   -2.4471331681   -1.1319344946
H       -2.0969859831   -5.4978191934    0.9533592955
H       -3.7974277568   -4.2089068808   -0.2811590011
H       -4.7767510152   -0.0393439588   -1.5643169807
H        0.0814534389   -1.8604132224    1.2886966917
H        0.9694358234   -0.8732596409   -0.4708323468
H        2.6891205854   -2.8692433942   -0.3581668120
42   
Frame 21-49 interpolated frame 31
C       -1.9278776867   -4.4021116075    0.8190127154
C       -0.8293952535   -3.6766337374    1.2744627940
C       -0.7216256212   -2.3308476520    0.9378174612
C       -1.5990021631   -1.4465940065    0.1112419240
C       -2.7541077744   -2.3228093466   -0.2275223353
C       -2.8575092099   -3.6987035599    0.1018974923
C       -3.8862185983   -1.8193968863   -0.8910210181
C       -3.8867386570   -0.5185558676   -1.1396700420
C       -2.8054296866    0.3455029331   -0.8497258034
C       -1.4747402661    0.0966372883   -0.2952261651
C       -3.2063606391    1.6539710907   -1.1757907827
C       -2.4032747610    2.6903498710   -0.9600703230
C       -1.0895827055    2.5263461301   -0.5025994457
C       -0.4070390469    1.2749709134   -0.2080414962
C       -0.4345232431    3.7762592340   -0.3410963315
C        0.8310787693    3.9617201412    0.0675798984
C        1.6209622799    2.8219220597    0.2657398167
C        1.1049323845    1.4957117210    0.0837590049
C        2.9865952078    3.0786148660    0.6396338305
C        3.9589104386    2.1506979416    0.8169806828
C        3.5875777633    0.8142038929    0.5414036874
C        2.2519545807    0.5079880422    0.1732254386
C        4.5461847302   -0.2260126208    0.5924907549
C        4.2036377204   -1.5217630429    0.2489101512
C        2.8992326858   -1.8497825978   -0.1836287532
C        1.9660506866   -0.8113076337   -0.2106633513
H       -0.0809329349   -4.1700996690    1.8924501228
H        4.9771278723    2.4019808199    1.1019662500
H        4.9579521608   -2.3024874920    0.2922564947
H        5.5630400536    0.0164960474    0.8909960512
H        3.2448217610    4.1249000680    0.7821581227
H        1.2616140169    4.9506106498    0.2015729067
H       -1.0389713609    4.6536983374   -0.5569084278
H       -2.7458576997    3.7026481010   -1.1593975114
H       -4.2088505916    1.8010877450   -1.5687256758
H       -4.7248301040   -2.4681205656   -1.1296715638
H       -2.0561457232   -5.4550905615    1.0529306248
H       -3.7554178858   -4.2131200501   -0.2313444747
H       -4.7643063632   -0.0654090438   -1.5936259742
H        0.0822098450   -1.7887090604    1.3458013018
H        0.9487173279   -0.8862766316   -0.5391876010
H        2.6661376909   -2.8724862607   -0.4703704511
42   
Frame 21-49 interpolated frame 32
C       -1.8942057960   -4.3606304014    0.8973619261
C       -0.8096542114   -3.6134361034    1.3531798633
C       -0.7106212211   -2.2738204833    0.9918168900
C       -1.5904351311   -1.4248566328    0.1371270450
C       -2.7319524737   -2.3144667685   -0.2006482600
C       -2.8241601796   -3.6848382417    0.1537645940
C       -3.8605293874   -1.8291931379   -0.8858066521
C       -3.8737223097   -0.5302162599   -1.1523818134
C       -2.8033249236    0.3485871274   -0.8622481048
C       -1.4791147019    0.1056863086   -0.2949458406
C       -3.2048424927    1.6553922165   -1.1976239390
C       -2.4060650970    2.6955639921   -0.9739898124
C       -1.0944701556    2.5343242750   -0.5061706231
C       -0.4175129810    1.2811768725   -0.2124723241
C       -0.4371308861    3.7815481352   -0.3326834440
C        0.8275160499    3.9550470437    0.0871698259
C        1.6129915928    2.8093474983    0.2763348762
C        1.0922060690    1.4879726972    0.0772664397
C        2.9787156760    3.0532817657    0.6566512797
C        3.9427622290    2.1140942922    0.8197074764
C        3.5660493436    0.7840546601    0.5180714060
C        2.2288350380    0.4894728259    0.1429249153
C        4.5224703281   -0.2591148639    0.5477274108
C        4.1794487925   -1.5463123539    0.1750915582
C        2.8750995608   -1.8599535698   -0.2669256644
C        1.9420357763   -0.8219690513   -0.2719546687
H       -0.0641109375   -4.0854208983    1.9910128725
H        4.9620357716    2.3536381950    1.1110601435
H        4.9322394803   -2.3292713156    0.2017647543
H        5.5394143872   -0.0245780797    0.8523450614
H        3.2437996875    4.0953642765    0.8164566777
H        1.2621483042    4.9403583647    0.2338024399
H       -1.0359566181    4.6634347117   -0.5460288519
H       -2.7499503638    3.7069808472   -1.1755468775
H       -4.2039186428    1.7988939529   -1.6005006926
H       -4.6900148306   -2.4894273943   -1.1248977785
H       -2.0125547041   -5.4102476194    1.1508833781
H       -3.7115442127   -4.2168910114   -0.1800636776
H       -4.7516892190   -0.0923619930   -1.6203930266
H        0.0843639779   -1.7150191018    1.3988547334
H        0.9259192596   -0.8976275298   -0.6060353477
H        2.6394301520   -2.8745672470   -0.5790581685
42   
Frame 21-49 interpolated frame 33
C       -1.8584386380   -4.3174096098    0.9743411580
C       -0.7879541660   -3.5482252397    1.4290039732
C       -0.6982937084   -2.2152109147    1.0432483914
C       -1.5810356185   -1.4027252500    0.1625281841
C       -2.7087854308   -2.3057964358   -0.1733060898
C       -2.7891619969   -3.6701651449    0.2058831253
C       -3.8340933019   -1.8391105821   -0.8789052394
C       -3.8603885545   -0.5423478876   -1.1634533758
C       -2.8010930413    0.3513453505   -0.8739532062
C       -1.4832408655    0.1144700775   -0.2945885295
C       -3.2033246524    1.6564645477   -1.2184127652
C       -2.4089015748    2.7005284029   -0.9873814918
C       -1.0992994438    2.5420825746   -0.5096736793
C       -0.4280000043    1.2871401781   -0.2169663206
C       -0.4395152257    3.7864880979   -0.3246439911
C        0.8242314349    3.9476809570    0.1058172617
C        1.6051351385    2.7960727746    0.2861199014
C        1.0792649673    1.4798659887    0.0704923650
C        2.9710080166    3.0268041482    0.6724262168
C        3.9262727657    2.0762043702    0.8212127844
C        3.5436400266    0.7530804479    0.4944380106
C        2.2047437416    0.4708416721    0.1127254892
C        4.4972057715   -0.2931880268    0.5033219360
C        4.1527410019   -1.5712259657    0.1027565379
C        2.8482188956   -1.8696663393   -0.3480351514
C        1.9160411631   -0.8319662563   -0.3319030726
H       -0.0449416008   -3.9981740668    2.0852936222
H        4.9466453852    2.3035384406    1.1185435574
H        4.9034281494   -2.3566041215    0.1132590398
H        5.5143791744   -0.0672623245    0.8137324185
H        3.2433619602    4.0643059897    0.8490414724
H        1.2631194773    4.9292069489    0.2647359774
H       -1.0326027736    4.6728615784   -0.5354105343
H       -2.7541841270    3.7110209238   -1.1911844050
H       -4.1990668742    1.7962713531   -1.6307675710
H       -4.6542670771   -2.5110063065   -1.1177485395
H       -1.9663379188   -5.3632633478    1.2474064899
H       -3.6658285516   -4.2201219245   -0.1273325929
H       -4.7388575935   -0.1201908503   -1.6447910880
H        0.0878030298   -1.6394714463    1.4481595453
H        0.9011298944   -0.9075012344   -0.6715057528
H        2.6092427452   -2.8756415468   -0.6845240619
42   
Frame 21-49 interpolated frame 34
C       -1.8206516108   -4.2724368685    1.0500798894
C       -0.7643982516   -3.4810361086    1.5021411472
C       -0.6847197035   -2.1550677824    1.0922784303
C       -1.5708120268   -1.3801894467    0.1875112889
C       -2.6846034204   -2.2967773621   -0.1454810275
C       -2.7525369825   -3.6546419789    0.2582969784
C       -3.8068928603   -1.8491219638   -0.8703901973
C       -3.8467141127   -0.5549449197   -1.1729728762
C       -2.7987260180    0.3537720849   -0.8848919155
C       -1.4871169978    0.1230014556   -0.2941382718
C       -3.2018008461    1.6571765562   -1.2382444398
C       -2.4117796379    2.7052376679   -1.0003039606
C       -1.1040689518    2.5496332106   -0.5131240017
C       -0.4385044560    1.2928795527   -0.2215172998
C       -0.4416744983    3.7910968480   -0.3169672718
C        0.8212160945    3.9396521134    0.1235741268
C        1.5973792800    2.7821234682    0.2951440259
C        1.0661013731    1.4714079998    0.0634513446
C        2.9634405912    2.9992201752    0.6870333278
C        3.9094064244    2.0370825032    0.8215588606
C        3.5203370906    0.7213096374    0.4705017546
C        2.1796890769    0.4520891589    0.0826109953
C        4.4704083245   -0.3282080891    0.4592185719
C        4.1236036725   -1.5965300596    0.0317759378
C        2.8187216235   -1.8790051293   -0.4271203066
C        1.8881416279   -0.8413833094   -0.3906068258
H       -0.0235662002   -3.9084179938    2.1755916165
H        4.9309027163    2.2517504920    1.1244958528
H        4.8716372560   -2.3845081035    0.0265632260
H        5.4879303153   -0.1114962579    0.7751111806
H        3.2434594666    4.0317721186    0.8800153486
H        1.2645156428    4.9171929991    0.2944474555
H       -1.0289038473    4.6819924975   -0.5250561681
H       -2.7585542252    3.7147590535   -1.2063847880
H       -4.1942850981    1.7932001589   -1.6596563757
H       -4.6175596292   -2.5328146082   -1.1083285267
H       -1.9175898611   -5.3141013724    1.3426481829
H       -3.6182775660   -4.2227223499   -0.0731619945
H       -4.7257730337   -0.1488882282   -1.6669541215
H        0.0924252208   -1.5621658783    1.4939540866
H        0.8744217778   -0.9160513921   -0.7357009954
H        2.5757722604   -2.8758405492   -0.7870022644
42   
Frame 21-49 interpolated frame 35
C       -1.7809020838   -4.2256918558    1.1246811028
C       -0.7390714694   -3.4118904803    1.5727552480
C       -0.6699664399   -2.0934282394    1.1390384862
C       -1.5597699574   -1.3572381390    0.2121315002
C       -2.6593998869   -2.2873881525   -0.1171582680
C       -2.7142964502   -3.6382254482    0.3110435168
C       -3.7789097814   -1.8592024293   -0.8603177240
C       -3.8326768287   -0.5680043218   -1.1810077758
C       -2.7962160602    0.3558590969   -0.8951031189
C       -1.4907401166    0.1312889766   -0.2935791135
C       -3.2002651922    1.6575140404   -1.2571896760
C       -2.4146943274    2.7096829304   -1.0128068127
C       -1.1087756899    2.5569828268   -0.5165360355
C       -0.4490285601    1.2984076591   -0.2261194232
C       -0.4436047464    3.7953861159   -0.3096487985
C        0.8184643642    3.9309837772    0.1404784514
C        1.5897133983    2.7675188769    0.3034455015
C        1.0527090565    1.4626105186    0.0561560264
C        2.9559862121    2.9705596555    0.7005311782
C        3.8921298173    1.9967733770    0.8207964977
C        3.4961258139    0.6887645115    0.4462632591
C        2.1536761422    0.4332103971    0.0525712079
C        4.4420856236   -0.3641581581    0.4153745316
C        4.0921038542   -1.6222504185   -0.0379518318
C        2.7867122471   -1.8880434633   -0.5043107122
C        1.8583974669   -0.8502910108   -0.4481429292
H       -0.0001024989   -3.8161923250    2.2621451189
H        4.9147569696    2.1983313920    1.1289811786
H        4.8369562740   -2.4130067638   -0.0584622768
H        5.4600559198   -0.1572332473    0.7364449175
H        3.2440503930    3.9977993785    0.9094574946
H        1.2663287265    4.9043455134    0.3229908354
H       -1.0248517707    4.6908351130   -0.5149742234
H       -2.7630551964    3.7181826997   -1.2212124938
H       -4.1895644728    1.7896585026   -1.6872729041
H       -4.5798643420   -2.5548130508   -1.0967182190
H       -1.8663814241   -5.2627170899    1.4367250455
H       -3.5688858183   -4.2246065820   -0.0175582712
H       -4.7123996327   -0.1784505092   -1.6869854599
H        0.0981373944   -1.4831809208    1.5364262369
H        0.8458549268   -0.9234049866   -0.7987010740
H        2.5391781461   -2.8752777668   -0.8866801938
42   
Frame 21-49 interpolated frame 36
C       -1.7392331820   -4.1771472500    1.1982267145
C       -0.7120447067   -3.3407992967    1.6409765251
C       -0.6540938009   -2.0303202668    1.1836320880
C       -1.5479125066   -1.3338594905    0.2364353740
C       -2.6331652439   -2.2776067723   -0.0883228649
C       -2.6744427068   -3.6208707383    0.3641550668
C       -3.7501247790   -1.8693289204   -0.8487301273
C       -3.8182551920   -0.5815254105   -1.1876088660
C       -2.7935554155    0.3575957984   -0.9046161322
C       -1.4941060774    0.1393377365   -0.2928950085
C       -3.1987121042    1.6574603537   -1.2753061439
C       -2.4176403902    2.7138523992   -1.0249326755
C       -1.1134155282    2.5641336347   -0.5199237301
C       -0.4595728401    1.3037323408   -0.2307672126
C       -0.4453001749    3.7993628987   -0.3026893884
C        0.8159731892    3.9216937756    0.1565569882
C        1.5821292986    2.7522733343    0.3110538274
C        1.0390829596    1.4534816126    0.0486174968
C        2.9486211683    2.9408458509    0.7129654939
C        3.8744111664    1.9553141053    0.8189675320
C        3.4709896791    0.6554624613    0.4217251492
C        2.1267073424    0.4142007043    0.0226007337
C        4.4122373827   -0.4010270498    0.3717574465
C        4.0582907294   -1.6484127431   -0.1065063718
C        2.7522742362   -1.8968467903   -0.5797092717
C        1.8268573768   -0.8587500763   -0.5045713727
H        0.0253499572   -3.7215211312    2.3451437600
H        4.8981596229    2.1433288877    1.1320518462
H        4.7994509414   -2.4421248795   -0.1419279469
H        5.4307375285   -0.2044375094    0.6977056691
H        3.2450986479    3.9624165553    0.9374282481
H        1.2685538361    4.8906876364    0.3504039135
H       -1.0204366878    4.6993924014   -0.5051782757
H       -2.7676811375    3.7212764433   -1.2357241225
H       -4.1848972635    1.7856223836   -1.7137036927
H       -4.5411518644   -2.5769649408   -1.0829785538
H       -1.8127648751   -5.2090583656    1.5297284800
H       -3.5176378736   -4.2256916144    0.0394759120
H       -4.6987032651   -0.2088773042   -1.7049637843
H        0.1048531324   -1.4025789588    1.5757234888
H        0.8154791899   -0.9296686619   -0.8605680939
H        2.4995902303   -2.8740531433   -0.9837081185
42   
Frame 21-49 interpolated frame 37
C       -1.6956765985   -4.1267693734    1.2707814802
C       -0.6833777675   -3.2677643939    1.7069078228
C       -0.6371558970   -1.9657645328    1.2261399740
C       -1.5352404919   -1.3100408382    0.2604625207
C       -2.6058870821   -2.2674103395   -0.0589596261
C       -2.6329705100   -3.6025310650    0.4176599655
C       -3.7205173857   -1.8794797039   -0.8356582468
C       -3.8034279637   -0.5955095312   -1.1928131812
C       -2.7907362244    0.3589694858   -0.9134524040
C       -1.4972096066    0.1471500364   -0.2920697211
C       -3.1971362167    1.6569965318   -1.2926409804
C       -2.4206123563    2.7177316627   -1.0367187278
C       -1.1179833584    2.5710841910   -0.5233008938
C       -0.4701364118    1.3088575072   -0.2354555570
C       -0.4467534045    3.8030303581   -0.2960945517
C        0.8137417250    3.9117956097    0.1718270856
C        1.5746207807    2.7363971684    0.3179912939
C        1.0252189847    1.4440262674    0.0408455441
C        2.9413245083    2.9100968137    0.7243715596
C        3.8562198412    1.9127357719    0.8161067042
C        3.4449105239    0.6214168836    0.3968918291
C        2.0987828437    0.3950553485   -0.0073017804
C        4.3808566436   -0.4388082235    0.3283435623
C        4.0221988649   -1.6750428767   -0.1739493066
C        2.7154740340   -1.9054744383   -0.6533971706
C        1.7935606210   -0.8668135100   -0.5599382333
H        0.0527058320   -3.6244155377    2.4247375224
H        4.8810637353    2.0867833783    1.1337508404
H        4.7591675923   -2.4718884542   -0.2239204986
H        5.3999509928   -0.2530819019    0.6588725330
H        3.2465726962    3.9256461910    0.9639725977
H        1.2711888015    4.8762379360    0.3767110555
H       -1.0156471688    4.7076635536   -0.4956865936
H       -2.7724258906    3.7240222081   -1.2499701789
H       -4.1802766648    1.7810655801   -1.7390196878
H       -4.5013913990   -2.5992354422   -1.0671543218
H       -1.7567775483   -5.1530659514    1.6217293153
H       -3.4645098053   -4.2258955333    0.0979410548
H       -4.6846509961   -0.2401710619   -1.7209474684
H        0.1124912241   -1.3204100592    1.6119604122
H        0.7833360529   -0.9349334531   -0.9213494169
H        2.4571144501   -2.8722562619   -1.0782061268
42   
Frame 21-49 interpolated frame 38
C       -1.6502547617   -4.0745186303    1.3423958120
C       -0.6531217358   -3.1927798018    1.7706291243
C       -0.6192023442   -1.8997758264    1.2666239031
C       -1.5217526491   -1.2857686359    0.2842468150
C       -2.5775503405   -2.2567749363   -0.0290530501
C       -2.5898681811   -3.5831572713    0.4715832803
C       -3.6900658248   -1.8896339887   -0.8211232561
C       -3.7881738895   -0.6099598154   -1.1966461458
C       -2.7877504019    0.3599654880   -0.9216267673
C       -1.5000443166    0.1547258412   -0.2910867358
C       -3.1955323261    1.6561013398   -1.3092326609
C       -2.4236045875    2.7213038687   -1.0481978551
C       -1.1224732038    2.5778299277   -0.5266814874
C       -0.4807171808    1.3137837525   -0.2401797150
C       -0.4479556550    3.8063884497   -0.2898740908
C        0.8117710417    3.9012992706    0.1862980433
C        1.5671833265    2.7198974122    0.3242741230
C        1.0111138583    1.4342468407    0.0328488668
C        2.9340775072    2.8783264134    0.7347760066
C        3.8375260266    1.8690646330    0.8122430859
C        3.4178686823    0.5866378802    0.3717693717
C        2.0699009557    0.3757693501   -0.0371341975
C        4.3479307402   -0.4774989451    0.2851164827
C        3.9838506913   -1.7021669499   -0.2403271776
C        2.6763641204   -1.9139810954   -0.7254374996
C        1.7585387234   -0.8745284078   -0.6142779340
H        0.0818908734   -3.5248757125    2.5010433395
H        4.8634234350    2.0287294491    1.1341137414
H        4.7161364443   -2.5023246471   -0.3045067473
H        5.3676671494   -0.3031462039    0.6199307127
H        3.2484446720    3.8875058835    0.9891227741
H        1.2742338306    4.8610113557    0.4019251757
H       -1.0104703709    4.7156445840   -0.4865219143
H       -2.7772831719    3.7263993669   -1.2639964278
H       -4.1756966665    1.7759595304   -1.7632789798
H       -4.4605505204   -2.6215909973   -1.0492766902
H       -1.6984446805   -5.0946737227    1.7127811120
H       -3.4094703247   -4.2251362077    0.1578403237
H       -4.6702106182   -0.2723367627   -1.7349777786
H        0.1209743764   -1.2367149020    1.6452242294
H        0.7494600772   -0.9392783887   -0.9810799671
H        2.4118372196   -2.8699687884   -1.1702692452
42   
Frame 21-49 interpolated frame 39
C       -1.6029825758   -4.0203498105    1.4131078042
C       -0.6213208868   -3.1158327695    1.8322008949
C       -0.6002793464   -1.8323642153    1.3051294874
C       -1.5074458237   -1.2610284211    0.3078172832
C       -2.5481374749   -2.2456754348    0.0014126936
C       -2.5451185011   -3.5626974585    0.5259472816
C       -3.6587469331   -1.8997716012   -0.8051380315
C       -3.7724714788   -0.6248809909   -1.1991231824
C       -2.7845895414    0.3605672435   -0.9291483735
C       -1.5026027071    0.1620631008   -0.2899291786
C       -3.1938953408    1.6547512593   -1.3251124198
C       -2.4266113065    2.7245498005   -1.0593995471
C       -1.1268782916    2.5843634962   -0.5300798766
C       -0.4913119654    1.3185087774   -0.2449353137
C       -0.4488968802    3.8094343530   -0.2840418516
C        0.8100639008    3.8902118438    0.1999720991
C        1.5598138723    2.7027783421    0.3299133231
C        0.9967650598    1.4241433820    0.0246352462
C        2.9268632645    2.8455451549    0.7441981756
C        3.8183004945    1.8243230943    0.8074012102
C        3.3898431384    0.5511328298    0.3463655067
C        2.0400584828    0.3563373312   -0.0668912561
C        4.3134420863   -0.5170995925    0.2420663205
C        3.9432584660   -1.7298114576   -0.3056735221
C        2.6349854359   -1.9224179495   -0.7958779115
C        1.7218168528   -0.8819373530   -0.6676148913
H        0.1128393919   -3.4228924266    2.5741499748
H        4.8451935454    1.9691971385    1.1331702484
H        4.6703741836   -2.5334616677   -0.3837364004
H        5.3338523784   -0.3546157182    0.5808709151
H        3.2506896861    3.8480093325    1.0129002065
H        1.2776912382    4.8450199384    0.4260491789
H       -1.0048921666    4.7233287335   -0.4777113591
H       -2.7822466564    3.7283847541   -1.2778449550
H       -4.1711519487    1.7702731906   -1.7865288738
H       -4.4185950566   -2.6439988189   -1.0293651154
H       -1.6377816791   -5.0338087951    1.8029225196
H       -3.3524816750   -4.2233301827    0.2191790842
H       -4.6553502850   -0.3053816646   -1.7470812639
H        0.1302280838   -1.1515271100    1.6755790106
H        0.7138800996   -0.9427732890   -1.0397839153
H        2.3638288597   -2.8672663687   -1.2599712259
42   
Frame 21-49 interpolated frame 40
C       -1.5538688866   -3.9642123070    1.4829446774
C       -0.5880143007   -3.0369046112    1.8916665494
C       -0.5804306562   -1.7635360266    1.3416883075
C       -1.4923151715   -1.2358048082    0.3311987474
C       -2.5176286387   -2.2340853366    0.0324537409
C       -2.4986994773   -3.5410966431    0.5807717239
C       -3.6265361328   -1.9098727017   -0.7877082206
C       -3.7562988369   -0.6402792279   -1.2002509340
C       -2.7812448324    0.3607563258   -0.9360214015
C       -1.5048761568    0.1691579691   -0.2885797484
C       -3.1922202344    1.6529204260   -1.3403053486
C       -2.4296266071    2.7274478709   -1.0703506137
C       -1.1311910960    2.5906749691   -0.5335110584
C       -0.5019165641    1.3230276619   -0.2497183471
C       -0.4495658739    3.8121627518   -0.2786155892
C        0.8086245784    3.8785379627    0.2128451527
C        1.5525106435    2.6850418938    0.3349153459
C        0.9821708012    1.4137138567    0.0162116964
C        2.9196663994    2.8117608570    0.7526511854
C        3.7985144619    1.7785305403    0.8016020089
C        3.3608117062    0.5149068797    0.3206896942
C        2.0092510694    0.3367534023   -0.0965647954
C        4.2773688617   -0.5576130495    0.1991891609
C        3.9004258944   -1.7580032711   -0.3700103506
C        2.5913693735   -1.9308335750   -0.8647525755
C        1.6834150084   -0.8890795151   -0.7199647162
H        0.1454921420   -3.3184483311    2.6441216477
H        4.8263293228    1.9082130334    1.1309454395
H        4.6218860778   -2.5653286295   -0.4616440539
H        5.2984691009   -0.4074800850    0.5416890230
H        3.2532852670    3.8071672136    1.0353170326
H        1.2815652212    4.8282733878    0.4490770169
H       -0.9988972566    4.7307067186   -0.4692864544
H       -2.7873100283    3.7299526044   -1.2915550168
H       -4.1666377934    1.7639728695   -1.8088074824
H       -4.3754890325   -2.6664264305   -1.0074288253
H       -1.5747960214   -4.9703915686    1.8921789311
H       -3.2935003887   -4.2203917164    0.2819644425
H       -4.6400382151   -0.3393150771   -1.7572715647
H        0.1401796047   -1.0648751711    1.7030688589
H        0.6766202819   -0.9454809871   -1.0974759137
H        2.3131463850   -2.8642201249   -1.3473673727
42   
Frame 21-49 interpolated frame 41
C       -1.5029174377   -3.9060502989    1.5519236844
C       -0.5532368501   -2.9559714224    1.9490540102
C       -0.5596981519   -1.6932946880    1.3763192529
C       -1.4763543092   -1.2100814675    0.3544122513
C       -2.4860018172   -2.2219766022    0.0640865580
C       -2.4505849043   -3.5182964471    0.6360740252
C       -3.5934074852   -1.9199174918   -0.7688328917
C       -3.7396336355   -0.6561619648   -1.2000280128
C       -2.7777070702    0.3605125014   -0.9422454939
C       -1.5068549482    0.1760050053   -0.2870206356
C       -3.1905020992    1.6505806084   -1.3548311304
C       -2.4326445207    2.7299741367   -1.0810757100
C       -1.1354034000    2.5967520139   -0.5369908834
C       -0.5125258212    1.3273330979   -0.2545251916
C       -0.4499503598    3.8145660786   -0.2736169950
C        0.8074587516    3.8662802047    0.2249071600
C        1.5452730479    2.6666880373    0.3392824818
C        0.9673300070    1.4029543475    0.0075845512
C        2.9124728635    2.7769792465    0.7601426301
C        3.7781395320    1.7317040315    0.7948634770
C        3.3307511881    0.4779633283    0.2947532262
C        1.9774734485    0.3170110799   -0.1261438638
C        4.2396855389   -0.5990442811    0.1564867795
C        3.8553492968   -1.7867697660   -0.4333490467
C        2.5455391778   -1.9392747559   -0.9320834062
C        1.6433488262   -0.8959915691   -0.7713349455
H        0.1797950767   -3.2115190267    2.7110003481
H        4.8067863324    1.8458011885    1.1274606808
H        4.5706675010   -2.5979555979   -0.5382504309
H        5.2614762009   -0.4617324042    0.5023859494
H        3.2562110041    3.7649879542    1.0563770769
H        1.2858617217    4.8107795671    0.4709942801
H       -0.9924692756    4.7377669464   -0.4612833085
H       -2.7924670801    3.7310745157   -1.3051636732
H       -4.1621501349    1.7570221256   -1.8301447832
H       -4.3311947269   -2.6888412191   -0.9834677237
H       -1.5094885234   -4.9043357631    1.9805635035
H       -3.2324779168   -4.2162319476    0.3462049372
H       -4.6242426111   -0.3741481276   -1.7655505308
H        0.1507573623   -0.9767840511    1.7277199532
H        0.6377007524   -0.9474591026   -1.1541618093
H        2.2598354491   -2.8608980206   -1.4324963509
42   
Frame 21-49 interpolated frame 42
C       -1.4501291049   -3.8458028416    1.6200530856
C       -0.5170218446   -2.8730048173    2.0043778477
C       -0.5381236418   -1.6216416558    1.4090304757
C       -1.4595557489   -1.1838412819    0.3774754775
C       -2.4532332667   -2.2093195697    0.0963275683
C       -2.4007454391   -3.4942347581    0.6918691187
C       -3.5593336212   -1.9298860896   -0.7485058614
C       -3.7224527127   -0.6725379280   -1.1984463500
C       -2.7739663439    0.3598134611   -0.9478165221
C       -1.5085281267    0.1825970874   -0.2852335558
C       -3.1887358014    1.6477008332   -1.3687051387
C       -2.4356587972    2.7321019218   -1.0915980200
C       -1.1395061922    2.6025796710   -0.5405362291
C       -0.5231334843    1.3314152588   -0.2593525614
C       -0.4500370636    3.8166343743   -0.2690714818
C        0.8065732684    3.8534391931    0.2361429541
C        1.5381015409    2.6477149163    0.3430136380
C        0.9522425002    1.3918590119   -0.0012402665
C        2.9052696140    2.7412044527    0.7666758169
C        3.7571476460    1.6838590724    0.7872018602
C        3.2996378062    0.4403042124    0.2685695846
C        1.9447201422    0.2971032181   -0.1556147869
C        4.2003638324   -0.6413993966    0.1139665167
C        3.8080196047   -1.8161381794   -0.4956914366
C        2.4975124116   -1.9477866243   -0.9978817720
C        1.6016313497   -0.9027083020   -0.8217261338
H        0.2156957890   -3.1020741338    2.7748090367
H        4.7865202150    1.7819842362    1.1227351815
H        4.5167064174   -2.6313725991   -0.6135638329
H        5.2228296862   -0.5173677338    0.4629678625
H        3.2594478238    3.7214783847    1.0760775206
H        1.2905880452    4.7925447043    0.4917793570
H       -0.9855909164    4.7444953093   -0.4537425601
H       -2.7977115042    3.7317190197   -1.3187065785
H       -4.1576850990    1.7493813188   -1.8505641958
H       -4.2856725300   -2.7112100702   -0.9574741854
H       -1.4418561084   -4.8355482982    2.0680782054
H       -3.1693614436   -4.2107580096    0.4119095520
H       -4.6079309581   -0.4098936274   -1.7719101288
H        0.1618889153   -0.8872768108    1.7495436532
H        0.5971394892   -0.9487616301   -1.2098399443
H        2.2039336517   -2.8573653005   -1.5153827711
42   
Frame 21-49 interpolated frame 43
C       -1.3955020262   -3.7834040657    1.6873322466
C       -0.4794009312   -2.7879725358    2.0576394380
C       -0.5157487232   -1.5485771171    1.4398195314
C       -1.4419109655   -1.1570662979    0.4004028454
C       -2.4192975817   -2.1960827652    0.1291932803
C       -2.3491488738   -3.4688454796    0.7481695015
C       -3.5242859609   -1.9397581956   -0.7267156679
C       -3.7047323032   -0.6894168863   -1.1954911917
C       -2.7700122198    0.3586349830   -0.9527265963
C       -1.5098836006    0.1889256394   -0.2831996428
C       -3.1869162301    1.6442474768   -1.3819386131
C       -2.4386630982    2.7338019164   -1.1019394983
C       -1.1434897891    2.6081405474   -0.5441652326
C       -0.5337323054    1.3352620351   -0.2641975668
C       -0.4498118097    3.8183555409   -0.2650084824
C        0.8059761172    3.8400139676    0.2465321180
C        1.5309975991    2.6281192151    0.3461043219
C        0.9369089566    1.3804202987   -0.0102572736
C        2.8980446135    2.7044395260    0.7722498928
C        3.7355111701    1.6350101401    0.7786319003
C        3.2674473316    0.4019305303    0.2421545777
C        1.9109855401    0.2770219758   -0.1849611100
C        4.1593730113   -0.6846855218    0.0716413798
C        3.7584228535   -1.8461359830   -0.5570298086
C        2.4473014357   -1.9564134789   -1.0621486154
C        1.5582732089   -0.9092633230   -0.8711318734
H        0.2531437962   -2.9900781718    2.8355519334
H        4.7654868115    1.7167840692    1.1167863725
H        4.4599840455   -2.6656100582   -0.6875802213
H        5.1824830485   -0.5743826906    0.4234463083
H        3.2629779598    3.6766444301    1.0944090675
H        1.2957528555    4.7735738574    0.5114032965
H       -0.9782440549    4.7508754162   -0.4467098161
H       -2.8030371144    3.7318516324   -1.3322182948
H       -4.1532393154    1.7410076449   -1.8700828108
H       -4.2388812363   -2.7334989134   -0.9294330244
H       -1.3718920783   -4.7639294018    2.1547138797
H       -3.1040944172   -4.2038723832    0.4790876840
H       -4.5910703473   -0.4465657902   -1.7763324732
H        0.1735012011   -0.7963758716    1.7685367587
H        0.5549522475   -0.9494401208   -1.2645010772
H        2.1454711795   -2.8536857913   -1.5960374440
42   
Frame 21-49 interpolated frame 44
C       -1.3390331418   -3.7187833183    1.7537519542
C       -0.4404058118   -2.7008391314    2.1088279534
C       -0.4926159637   -1.4741008402    1.4686743470
C       -1.4234107627   -1.1297378545    0.4232056585
C       -2.3841680740   -2.1822328015    0.1627000145
C       -2.2957609828   -3.4420582532    0.8049849835
C       -3.4882347887   -1.9495129196   -0.7034463252
C       -3.6864478723   -0.7068095952   -1.1911418173
C       -2.7658335924    0.3569507762   -0.9569644747
C       -1.5109080782    0.1949805950   -0.2808994593
C       -3.1850381371    1.6401840051   -1.3945392985
C       -2.4416509035    2.7350418948   -1.1121213265
C       -1.1473437990    2.6134146418   -0.5478974848
C       -0.5443139418    1.3388589384   -0.2690577115
C       -0.4492596115    3.8197152401   -0.2614614737
C        0.8056762608    3.8260020946    0.2560493679
C        1.5239636490    2.6078963207    0.3485470763
C        0.9213310588    1.3686289419   -0.0194612605
C        2.8907866650    2.6666868948    0.7768606187
C        3.7132029801    1.5851713235    0.7691676868
C        3.2341555023    0.3628426982    0.2155267288
C        1.8762644533    0.2567587888   -0.2141635392
C        4.1166806945   -0.7289101144    0.0295302389
C        3.7065416463   -1.8767904706   -0.6173472609
C        2.3949151262   -1.9651989516   -1.1248752614
C        1.5132838608   -0.9156895239   -0.9195393157
H        0.2920882924   -2.8754915235    2.8932160548
H        4.7436421601    1.6502227620    1.1096310458
H        4.4004766684   -2.7006981643   -0.7602837188
H        5.1403879073   -0.6327743483    0.3838386700
H        3.2667845138    3.6304917234    1.1113569593
H        1.3013658995    4.7538711234    0.5298303604
H       -0.9704099057    4.7568884325   -0.4402358354
H       -2.8084377650    3.7314345177   -1.3457328273
H       -4.1488096999    1.7318548194   -1.8887122828
H       -4.1907781082   -2.7556723421   -0.8993225001
H       -1.2995880524   -4.6893725980    2.2404505070
H       -3.0366173163   -4.1954721671    0.5477483854
H       -4.5736271391   -0.4841800460   -1.7787908254
H        0.1855192406   -0.7041044136    1.7846831439
H        0.5111538186   -0.9495448200   -1.3181290519
H        2.0844730498   -2.8499223350   -1.6744587043
42   
Frame 21-49 interpolated frame 45
C       -1.2807194366   -3.6518653631    1.8192944606
C       -0.4000695301   -2.6115666840    2.1579208725
C       -0.4687697704   -1.3982130289    1.4955737800
C       -1.4040456112   -1.1018366974    0.4458921414
C       -2.3478171330   -2.1677342674    0.1968636780
C       -2.2405462979   -3.4137982168    0.8623223977
C       -3.4511494068   -1.9591285748   -0.6786778293
C       -3.6675740647   -0.7247276891   -1.1853719918
C       -2.7614186155    0.3547323937   -0.9605158265
C       -1.5115870473    0.2007504049   -0.2783130013
C       -3.1830960688    1.6354707844   -1.4065118937
C       -2.4446154867    2.7357864949   -1.1221642806
C       -1.1510571298    2.6183792161   -0.5517542394
C       -0.5548688916    1.3421890479   -0.2739309143
C       -0.4483647867    3.8206968331   -0.2584681055
C        0.8056834860    3.8113998036    0.2646647528
C        1.5170030135    2.5870405177    0.3503317692
C        0.9055116259    1.3564739921   -0.0288471739
C        2.8834853129    2.6279488299    0.7805009538
C        3.6901966101    1.5343569239    0.7588233709
C        3.1997384423    0.3230409566    0.1887076735
C        1.8405526011    0.2363043643   -0.2431998350
C        4.0722536037   -0.7740803896   -0.0123418439
C        3.6523564186   -1.9081284627   -0.6766177497
C        2.3403602859   -1.9741862160   -1.1860438534
C        1.4666725941   -0.9220195011   -0.9669294630
H        0.3324765181   -2.7582714226    2.9477720559
H        4.7209426095    1.5823234278    1.1012863263
H        4.3381571976   -2.7366664151   -0.8316467145
H        5.0964946841   -0.6925393012    0.3441687229
H        3.2708511386    3.5830262333    1.1269017284
H        1.3074377669    4.7334398753    0.5470183238
H       -0.9620692098    4.7625129678   -0.4343768135
H       -2.8139073420    3.7304262107   -1.3592840583
H       -4.1443933546    1.7218728372   -1.9064594393
H       -4.1413190519   -2.7776932150   -0.8671149807
H       -1.2249355645   -4.6117647898    2.3252571470
H       -2.9668684501   -4.1854484158    0.6178997095
H       -4.5555668068   -0.5227528149   -1.7792502106
H        0.1978652304   -0.6104877366    1.7979547773
H        0.4657590001   -0.9491256454   -1.3707012131
H        2.0209609174   -2.8461372682   -1.7506332105
42   
Frame 21-49 interpolated frame 46
C       -1.2205592748   -3.5825706412    1.8839333994
C       -0.3584278219   -2.5201155820    2.2048843501
C       -0.4442572958   -1.3209152331    1.5204880814
C       -1.3838060343   -1.0733431206    0.4684674130
C       -2.3102166465   -2.1525496290    0.2316994940
C       -2.1834689712   -3.3839857927    0.9201852247
C       -3.4129983227   -1.9685824741   -0.6523866571
C       -3.6480846622   -0.7431835659   -1.1781503891
C       -2.7567546294    0.3519491455   -0.9633634798
C       -1.5119047610    0.2062220374   -0.2754197226
C       -3.1810842863    1.6300648825   -1.4178584747
C       -2.4475498899    2.7359969774   -1.1320890872
C       -1.1546180050    2.6230086406   -0.5557586276
C       -0.5653864214    1.3452329368   -0.2788155393
C       -0.4471111007    3.8212812947   -0.2560703449
C        0.8060082275    3.7962021066    0.2723438383
C        1.5101198558    2.5655451804    0.3514458839
C        0.8894547597    1.3439428429   -0.0384099959
C        2.8761307576    2.5882279172    0.7831616551
C        3.6664664531    1.4825820634    0.7476139155
C        3.1641731518    0.2825257981    0.1617226151
C        1.8038471501    0.2156486923   -0.2720446822
C        4.0260584107   -0.8202027031   -0.0539431782
C        3.5958467920   -1.9401759423   -0.7348060100
C        2.2836431176   -1.9834181110   -1.2456276887
C        1.4184495915   -0.9282859137   -1.0132774186
H        0.3742520556   -2.6383730214    2.9991748761
H        4.6973449994    1.5131110904    1.0917706970
H        4.2729968426   -2.7735430792   -0.9016297991
H        5.0507533826   -0.7536726918    0.3044673261
H        3.2751617229    3.5342549042    1.1410199625
H        1.3139796084    4.7122829801    0.5629187557
H       -0.9532024653    4.7677249306   -0.4291946846
H       -2.8194397542    3.7287813151   -1.3729061657
H       -4.1399874480    1.7110077243   -1.9233268422
H       -4.0904588383   -2.7995222521   -0.8327775904
H       -1.1479277836   -4.5309864224    2.4090917142
H       -2.8947848679   -4.1736855125    0.6895479758
H       -4.5368537827   -0.5623012605   -1.7776679814
H        0.2104576189   -0.5155546614    1.8083126245
H        0.4187836320   -0.9482330679   -1.4221888182
H        1.9549549332   -2.8423927828   -1.8245366247
42   
Frame 21-49 interpolated frame 47
C       -1.1585538607   -3.5108156146    1.9476335993
C       -0.3155205595   -2.4264453993    2.2496734939
C       -0.4191293901   -1.2422113362    1.5433793068
C       -1.3626830497   -1.0442371366    0.4909334041
C       -2.2713384898   -2.1366391450    0.2672216789
C       -2.1244937524   -3.3525365173    0.9785731324
C       -3.3737494749   -1.9778507262   -0.6245462824
C       -3.6279525462   -0.7621902557   -1.1694410177
C       -2.7518280804    0.3485680165   -0.9654876764
C       -1.5118442328    0.2113809797   -0.2721985867
C       -3.1789966693    1.6239198659   -1.4285789125
C       -2.4504468977    2.7356309699   -1.1419167817
C       -1.1580139942    2.6272742213   -0.5599358797
C       -0.5758544898    1.3479685876   -0.2837104335
C       -0.4454819465    3.8214471082   -0.2543146256
C        0.8066613548    3.7804029085    0.2790478962
C        1.5033191143    2.5434029733    0.3518748238
C        0.8731660068    1.3310212606   -0.0481446141
C        2.8687137741    2.5475275514    0.7848319171
C        3.6419880146    1.4298633105    0.7355559008
C        3.1274380772    0.2412984235    0.1346008354
C        1.7661473125    0.1947810797   -0.3006695423
C        3.9780627014   -0.8672818834   -0.0952349131
C        3.5369930615   -1.9729576170   -0.7918673793
C        2.2247708014   -1.9929371821   -1.3035914954
C        1.3686270713   -0.9345217871   -1.0585526253
H        0.4173530140   -2.5157505762    3.0473642607
H        4.6728069133    1.4426135856    1.0811051019
H        4.2049669433   -2.8113545700   -0.9701815667
H        5.0031145049   -0.8161671847    0.2647732444
H        3.2797000654    3.4841863238    1.1536851196
H        1.3210027999    4.6904030101    0.5774773089
H       -0.9437902112    4.7724973614   -0.4247574293
H       -2.8250289250    3.7264501796   -1.3866340388
H       -4.1355890682    1.6992012886   -1.9393133336
H       -4.0381513730   -2.8211176233   -0.7962728709
H       -1.0685614042   -4.4469117589    2.4919006206
H       -2.8203034109   -4.1600605857    0.7626969426
H       -4.5174513004   -0.6028430149   -1.7739943715
H        0.2232101644   -0.4193389983    1.8157074997
H        0.3702457193   -0.9469189145   -1.4725574821
H        1.8864757124   -2.8387511784   -1.8961342287
42   
Frame 21-49 interpolated frame 48
C       -1.0947088604   -3.4365132172    2.0103508227
C       -0.2713933135   -2.3305158946    2.2922325954
C       -0.3934416078   -1.1621086344    1.5642017138
C       -1.3406686768   -1.0144986800    0.5132887275
C       -2.2311550988   -2.1199608004    0.3034430630
C       -2.0635871093   -3.3193609219    1.0374814317
C       -3.3333705026   -1.9869080274   -0.5951277332
C       -3.6071496648   -0.7817612679   -1.1592036760
C       -2.7466244340    0.3445535967   -0.9668663490
C       -1.5113872442    0.2162112475   -0.2686281511
C       -3.1768266020    1.6169856001   -1.4386713080
C       -2.4532990123    2.7346422010   -1.1516690767
C       -1.1612320622    2.6311440150   -0.5643135525
C       -0.5862596727    1.3503713056   -0.2886149747
C       -0.4434605725    3.8211701493   -0.2532519901
C        0.8076539129    3.7639951156    0.2847341212
C        1.4966064208    2.5206060670    0.3516022509
C        0.8566525327    1.3176934242   -0.0580456815
C        2.8612256309    2.5058524631    0.7855000757
C        3.6167382220    1.3762193385    0.7226684002
C        3.0895137730    0.1993612373    0.1073762627
C        1.7274550128    0.1736902085   -0.3290424976
C        3.9282360861   -0.9153204985   -0.1361704191
C        3.4757778551   -2.0064964011   -0.8477475503
C        2.1637532156   -2.0027856448   -1.3598916823
C        1.3172205307   -0.9407607694   -1.1027191157
H        0.4617100736   -2.3903587882    3.0922652237
H        4.6472870074    1.3708625049    1.0693141467
H        4.1340410177   -2.8501247222   -1.0372383190
H        4.9535301298   -0.8800118687    0.2251340949
H        3.2844495288    3.4328314322    1.1648684292
H        1.3285185368    4.6678024534    0.5906340512
H       -0.9338133765    4.7768002466   -0.4211393745
H       -2.8306687855    3.7233785578   -1.4005037023
H       -4.1311950404    1.6863908736   -1.9544145959
H       -3.9843500238   -2.8424345257   -0.7575594932
H       -0.9868387544   -4.3594092993    2.5736183184
H       -2.7433619426   -4.1444429768    0.8373468728
H       -4.4973212293   -0.6443958672   -1.7681730771
H        0.2360309745   -0.3218811082    1.8200809223
H        0.3201666632   -0.9452371095   -1.5217676811
H        1.8155464622   -2.8352750147   -1.9653815229
42   
Frame 21-49 interpolated frame 49
C       -1.0290362162   -3.3595734417    2.0720314551
C       -0.2260990546   -2.2322881595    2.3324953572
C       -0.3672552750   -1.0806190245    1.5829021828
C       -1.3177565228   -0.9841078474    0.5355285022
C       -2.1896401431   -2.1024702629    0.3403746456
C       -2.0007185223   -3.2843644829    1.0969004484
C       -3.2918290671   -1.9957274489   -0.5641002145
C       -3.5856470055   -0.8019104087   -1.1473944673
C       -2.7411280791    0.3398680325   -0.9674754401
C       -1.5105143722    0.2206954100   -0.2646866922
C       -3.1745668359    1.6092080585   -1.4481324642
C       -2.4560984279    2.7329802302   -1.1613687540
C       -1.1642586422    2.6345826415   -0.5689217625
C       -0.5965870930    1.3524136385   -0.2935291292
C       -0.4410303665    3.8204235643   -0.2529382128
C        0.8089968025    3.7469707533    0.2893558951
C        1.4899879952    2.4971463813    0.3506104750
C        0.8399233064    1.3039419856   -0.0681074596
C        2.8536580031    2.4632092898    0.7851544014
C        3.5906957953    1.3216716247    0.7089739404
C        3.0503836685    0.1567183930    0.0800880931
C        1.6877756304    0.1523642238   -0.3571280929
C        3.8765514816   -0.9643180487   -0.1766945945
C        3.4121880092   -2.0408128137   -0.9023822802
C        2.1006048393   -2.0130052730   -1.4144765974
C        1.2642501113   -0.9470373424   -1.1457358002
H        0.5072443623   -2.2621543364    3.1337885153
H        4.6207454247    1.2978941963    1.0564274151
H        4.0601970827   -2.8898739674   -1.1027237066
H        4.9019551842   -0.9451910712    0.1856074135
H        3.2893926640    3.3802042862    1.1745399145
H        1.3365373442    4.6444839336    0.6023238662
H       -0.9232537072    4.7806003231   -0.4184214708
H       -2.8363532679    3.7195072569   -1.4145527589
H       -4.1268017033    1.6725091243   -1.9686237546
H       -3.9290080164   -2.8634247467   -0.7165930480
H       -0.9027701642   -4.2683423847    2.6541667753
H       -2.6639007982   -4.1266937774    0.9134934814
H       -4.4764238986   -0.6869774048   -1.7601419092
H        0.2488215323   -0.2232295708    1.8213660347
H        0.2685726217   -0.9432443628   -1.5697753479
H        1.7421953204   -2.8320271709   -2.0322248550
