18   
Iteration 1 Energy -414.40801832
C       -2.3316330027   -0.4154840406    0.0596013062
O       -2.1515309051    0.7593807006   -0.7196418501
N        2.5953964820   -0.8630447920    0.1087480453
N        2.1204522952    0.2843534913    0.2102141321
H        1.0704817209    0.2903117890    0.1343568276
H       -3.3535629613   -0.7455201642   -0.1489572803
H       -2.2350892315   -0.2094118755    1.1352830484
H       -1.6227826484   -1.2042858924   -0.2191322647
C       -0.9268298179    2.5648322495    0.1405816723
N       -0.8139062786    1.2630503812   -0.5254187902
C        1.6948878035   -1.9840233044    0.0006826241
N        0.7068992603   -2.2451220688    0.7560762712
H       -0.5061575437    1.4258862596   -1.4858241109
H        0.5726078840   -1.4941468529    1.4458689717
H        2.0059826441   -2.6981486430   -0.7636438464
H        0.0727468369    3.0123474655    0.1744852386
H       -1.2742353388    2.4112600572    1.1659654566
H       -1.6192030919    3.2472750753   -0.3702465894
18   
Iteration 1 Energy -414.46712342
C       -2.6427538339   -0.9001115437   -0.2461334468
O       -2.4037156250   -0.2286361419   -1.2273238715
N        2.0955008877   -0.5689261257   -0.0570601200
N        2.8121273392    0.4164731334   -0.2672725098
H        2.2021494487    1.2446032495   -0.5012681807
H       -2.7198884868   -2.0035400954   -0.2905228469
H       -2.8398891912   -0.4551736830    0.7470566476
H        0.2160735392   -0.9518051035    1.7553613628
C        0.0286460147    1.6157146953    1.1824895879
N        0.1976604807    1.0033007202   -0.1367647948
C        0.5835685541   -0.3816552224   -0.1714034014
N       -0.0686875529   -1.2379822245    0.8180289394
H       -0.6376123026    1.1324449745   -0.7010630454
H        0.3025373118   -2.1821376484    0.7045440556
H        0.3288829884   -0.7745685839   -1.1614057654
H       -0.1895229870    2.6790972653    1.0487855028
H        0.9614156107    1.5411630003    1.7523019977
H       -0.7810251376    1.1711779170    1.7816588135
