11   
Generated by geomeTRIC from /home/hpark21/research/qcf_neb/rxns/BHDIV10/ts4/irc/interpolated.xyz: Frame 1 of 101
C       -0.3203316964    0.6153526055    0.8634411625
C       -0.4450613826   -0.4353813206   -0.2443782917
C        0.8334076812   -0.5835632928   -1.0754065193
H       -0.0960507008    1.6050586283    0.4463862350
H        0.4877942080    0.3614035710    1.5608747762
H        1.1071349570    0.3663230770   -1.5514863061
H       -1.2465287837    0.7002831088    1.4435402786
H       -1.2810463849   -0.1701560052   -0.9061258758
H       -0.7061022232   -1.4055510267    0.1999446142
H        0.7136593467   -1.3311691847   -1.8681307281
H        1.6795378803   -0.8940905284   -0.4497154636
11   
Generated by geomeTRIC from /home/hpark21/research/qcf_neb/rxns/BHDIV10/ts4/irc/interpolated.xyz: Frame 101 of 101
C       -0.4259306004    1.7291449406    1.8563593860
C       -0.2210717580   -1.4918613166   -1.0557345291
C        0.8672751354   -0.8421083454   -1.4643657734
H       -0.5670455238    2.7304667497    1.4400901141
H        0.4382643839    1.7333412480    2.5264252417
H       -0.2564468042    1.0157531557    1.0454234402
H       -1.3188220620    1.4403304684    2.4178137217
H       -1.2031650460   -1.2864981964   -1.4751288312
H       -0.1764748994   -2.2588451626   -0.2861503095
H        0.8225769081   -0.0772478931   -2.2360736914
H        1.8498807123   -1.0489317100   -1.0469275195
