13   
Intrinsic Reaction Coordinate: Energy =  0.0000 kcal/mol
H       -1.6062317433    0.5753320903    0.9565069592
O       -2.6075950577    1.5951999464   -0.1038937141
N        2.2538335717   -0.9608416997   -0.5593590958
C        1.2732205902   -0.8495051134    0.5020951335
H        2.5916853235   -0.0421914876   -0.8326562725
C        0.0224523697   -0.0377340316    0.1812751714
H        0.9430810365   -1.8490595869    0.8104167786
H        1.7352613716   -0.4059808642    1.3919277024
O       -0.8133934854    0.0423785711    1.2219178963
O       -0.1961208632    0.4792794214   -0.9077575827
H        1.8372032004   -1.3717902713   -1.3901776458
H       -1.9519979325    1.4277334734   -0.8087727501
H       -3.4813983814    1.3971795521   -0.4615225803
13   
Intrinsic Reaction Coordinate: Energy =  59.3233 kcal/mol
H       -2.0285639054    1.2347447419    0.9634296875
O       -2.6588332337    1.9083293480   -0.6406756230
N        1.8911463643   -1.0519803580   -0.7364432131
C        2.4151399171   -1.5191638284    0.3276773331
H        0.4284897572   -0.1633475384   -0.4893114991
C       -0.4353975464    0.1507529315    1.1721364993
H        3.3465448731   -2.0950341936    0.3414193222
H        1.9036382980   -1.3318981461    1.2729336366
O       -1.4873062058    0.7714890586    1.6569569636
O       -0.3892363368    0.3146155786   -0.1579968867
H        2.4276471154   -1.2675525687   -1.5792164669
H       -1.9345642921    1.4140214563   -1.0605085124
H       -3.4787048049    1.6350235183   -1.0704012410
