18   
Iteration 0 Energy -458.61437762
O        0.8559100000   -1.3823600000    0.3174600000
H        1.6752400000   -1.8477400000    0.4858000000
H        1.1176100000   -0.4684300000    0.2057500000
O       -1.0986300000   -0.8583700000    2.1731900000
H       -0.4031000000   -1.1460800000    1.5818400000
H       -1.0851100000    0.0968300000    2.1128200000
O        1.8644800000    1.2201800000    1.3331100000
H        2.0104700000    1.8829200000    0.6580600000
H        2.6420500000    0.6632600000    1.2947900000
O        0.4360100000    0.8591100000   -1.7990100000
H        1.2952700000    0.5943600000   -1.4706600000
H        0.1355600000    0.1112200000   -2.3153700000
O       -0.8009300000   -2.0911300000   -1.5730000000
H       -0.2203200000   -1.8297700000   -0.8582800000
H       -0.3280600000   -1.8458100000   -2.3682600000
O       -1.4967600000    2.2679100000   -0.3295400000
H       -0.8467900000    1.6940800000   -0.7351300000
H       -2.3252600000    1.7984600000   -0.4267000000
18   
Iteration 1 Energy -458.62614239
O        0.9717626595   -1.3791457864    0.3772244648
H        1.7931976265   -1.8628539872    0.4900885313
H        1.1551686227   -0.4295501089    0.3674605872
O       -1.1589402272   -0.8251088940    2.2329897591
H       -0.4673230485   -1.1605349967    1.6507193617
H       -1.1092399597    0.1297564193    2.1338564912
O        1.8776979037    1.1943235103    1.2913343387
H        1.9912003165    1.9019500201    0.6465139097
H        2.7040806685    0.7006626836    1.3026302694
O        0.4932598985    0.8850824343   -1.8172550849
H        1.3700354953    0.5896708271   -1.5635224953
H        0.0930379110    0.1467136207   -2.2895919325
O       -0.8778143666   -2.1397008756   -1.6972005519
H       -0.3307312232   -1.8902801921   -0.9343441955
H       -0.3450566528   -1.9356102663   -2.4672879905
O       -1.5195833044    2.2767741570   -0.3024437802
H       -0.8657637793    1.7200838045   -0.7456934124
H       -2.3473485404    1.7964076303   -0.3886082701
18   
Iteration 2 Energy -458.63343456
O        0.9957672982   -1.3823550398    0.3638408525
H        1.8191667715   -1.8757864926    0.4232469245
H        1.1778833195   -0.4473201034    0.5727927555
O       -1.2194837250   -0.7851713785    2.2869965639
H       -0.5238342863   -1.1818652496    1.7419787876
H       -1.1344706648    0.1639358441    2.1373885803
O        1.9083606542    1.1512388790    1.2208473174
H        1.9494120261    1.9096283060    0.6237779697
H        2.8100580522    0.8226581855    1.3166704136
O        0.5518381974    0.9111473174   -1.8376061243
H        1.4264458707    0.5391813861   -1.6933212266
H        0.0250027519    0.1995828166   -2.2244134609
O       -0.9014801888   -2.1504918439   -1.7630326991
H       -0.3480453928   -1.9009827981   -1.0001009932
H       -0.3376786514   -2.0768466941   -2.5384604401
O       -1.5365725538    2.2778627553   -0.2572050643
H       -0.8781150147    1.7662437953   -0.7552164894
H       -2.3566144641    1.7779803149   -0.3313136673
18   
Iteration 3 Energy -458.63805583
O        1.0124798898   -1.3545268479    0.3411789577
H        1.8012780491   -1.9013063978    0.4097732038
H        1.2592259164   -0.4739233003    0.6983370596
O       -1.2839176601   -0.7362807756    2.3376806072
H       -0.6049552497   -1.2058299164    1.8322782049
H       -1.1516759436    0.1959193379    2.1270498168
O        1.9807307537    1.0827373233    1.1631302985
H        1.8513203469    1.8509673151    0.5919110059
H        2.9246112468    1.0445352165    1.3525608336
O        0.5736776613    0.9252895412   -1.8790061083
H        1.4202049668    0.4720858689   -1.8054218715
H       -0.0492312909    0.2361829378   -2.1474895844
O       -0.9065057147   -2.1172683975   -1.8448883048
H       -0.3308471797   -1.8895829293   -1.0937606774
H       -0.3243258706   -2.2444195438   -2.6000080487
O       -1.5364035684    2.2684768962   -0.1880512930
H       -0.8711986848    1.8267612972   -0.7392817348
H       -2.3368276683    1.7388223747   -0.2691223654
18   
Iteration 4 Energy -458.64152633
O        1.0197166335   -1.3840348521    0.3055481776
H        1.7677240660   -1.9733652342    0.4400088772
H        1.3192797848   -0.5282077842    0.6837612328
O       -1.3274625436   -0.6961627090    2.3639973592
H       -0.6686621653   -1.2023979160    1.8724146794
H       -1.1672284785    0.2205180594    2.1140994764
O        2.0628208247    1.0802301100    1.1470496536
H        1.7739110482    1.7978193189    0.5708934230
H        2.9712298843    1.2728604233    1.3985642477
O        0.5480989526    0.9191231518   -1.9211741115
H        1.3777923331    0.4337791831   -1.8509223211
H       -0.1050095767    0.2280516972   -2.0999542663
O       -0.8769996196   -2.0406685454   -1.9063623182
H       -0.2839373916   -1.8723382166   -1.1569877616
H       -0.3189680761   -2.3559318279   -2.6238774720
O       -1.5134355891    2.2496005892   -0.1184886847
H       -0.8544695852    1.8710325334   -0.7168435790
H       -2.2967605017    1.6987320191   -0.2148566125
18   
Iteration 5 Energy -458.64557133
O        1.0479715708   -1.4228122038    0.2640202480
H        1.6860342659   -2.1025531733    0.5048131182
H        1.4422594641   -0.6088810626    0.6315167688
O       -1.3781296064   -0.6305900391    2.3791454149
H       -0.7531539653   -1.1752869622    1.8908610931
H       -1.1938192344    0.2670831936    2.0847222590
O        2.1608605078    1.1020591046    1.0991443045
H        1.6921315638    1.7149470951    0.5244407496
H        2.9180924038    1.5769602692    1.4509078597
O        0.4497801585    0.8722775105   -1.9734983055
H        1.2878718079    0.4080569689   -1.8631128874
H       -0.1855822618    0.1446215745   -2.0570592865
O       -0.7607901826   -1.8638579449   -1.9877451536
H       -0.1720904211   -1.8639946107   -1.2205687765
H       -0.3479361335   -2.4472521511   -2.6321683654
O       -1.4397267367    2.1965270676   -0.0022714107
H       -0.8166079895    1.9189012198   -0.6839886430
H       -2.2095252113    1.6324341439   -0.1222889873
18   
Iteration 6 Energy -458.64804933
O        1.0649343508   -1.4631928992    0.2643238254
H        1.6448485934   -2.1648102535    0.5764472134
H        1.4902335127   -0.6434789574    0.5666177003
O       -1.3779260328   -0.5997727221    2.3544630930
H       -0.7647461758   -1.1395167008    1.8473146759
H       -1.2027592992    0.2987044301    2.0565792499
O        2.1509770590    1.1130358885    1.0553862290
H        1.6389406699    1.7165978282    0.5088826423
H        2.8530508619    1.6391611635    1.4480688484
O        0.3662058066    0.8392765891   -1.9784302851
H        1.2325311341    0.4499586491   -1.8166910908
H       -0.1942029152    0.0535987471   -2.0900381290
O       -0.6801178950   -1.7545390672   -1.9821499014
H       -0.1128767252   -1.8594027632   -1.2053583058
H       -0.3744099458   -2.4104025133   -2.6165571509
O       -1.3667951437    2.1467577082    0.0478357440
H       -0.7852326337    1.8878460268   -0.6781049708
H       -2.1550152220    1.6088188460   -0.0717193878
18   
Iteration 7 Energy -458.65095338
O        1.0665441088   -1.5203457923    0.3079505699
H        1.6255449518   -2.1972123694    0.6974943385
H        1.4950681289   -0.6691289256    0.4806327430
O       -1.3322803087   -0.5783828413    2.2801388760
H       -0.7193511676   -1.0776622359    1.7304288631
H       -1.1954769501    0.3360442135    2.0080768511
O        2.0365140752    1.0993858064    0.9875074443
H        1.5347644074    1.7868998526    0.5366335538
H        2.7916420696    1.5502610229    1.3798255001
O        0.2934443755    0.8431874369   -1.9597268265
H        1.1865671005    0.5767840988   -1.7234036004
H       -0.1298826573   -0.0117062805   -2.1715484112
O       -0.6443735117   -1.6822956864   -1.9129198722
H       -0.0835487266   -1.8491656046   -1.1366731741
H       -0.3903315844   -2.3276342257   -2.5780569971
O       -1.2566840863    2.0702438638    0.0699215189
H       -0.7495851585    1.7527309350   -0.6940719363
H       -2.1009350664    1.6166367318   -0.0153394409
18   
Iteration 8 Energy -458.65417300
O        1.0663759491   -1.5714011395    0.3613144591
H        1.6109149871   -2.2265982157    0.8030256188
H        1.4887386079   -0.7059887355    0.4814877604
O       -1.2908000256   -0.5375070385    2.2049520163
H       -0.6804395112   -1.0131046366    1.6282911258
H       -1.1820443628    0.3840643726    1.9394260788
O        1.9434450486    1.0879878103    0.8941351926
H        1.3978741308    1.8174315941    0.5742564772
H        2.7178438519    1.5007257411    1.2934116362
O        0.2734237495    0.8830873504   -1.9685205745
H        1.1783746088    0.7000195220   -1.7021584747
H       -0.0915558931   -0.0100849419   -2.1614043870
O       -0.6114331129   -1.6505057205   -1.9037285366
H       -0.0648024110   -1.8301114062   -1.1139584611
H       -0.4156630392   -2.3340834824   -2.5480292137
O       -1.1437424271    1.9796814469    0.1154972037
H       -0.7287048100    1.6156100427   -0.6907790379
H       -2.0401653408    1.6294174367    0.0796511167
18   
Iteration 9 Energy -458.65115484
O        1.0525328276   -1.7159366977    0.5145983107
H        1.5200244125   -2.3144385088    1.1017851261
H        1.4689937392   -0.8327568618    0.5653008595
O       -1.1711530352   -0.3603239228    1.9735592206
H       -0.5869915621   -0.8270754947    1.3552887933
H       -1.1048304087    0.5559555842    1.6677910692
O        1.6991231760    1.1149679680    0.5592066938
H        0.9074153516    1.6661021616    0.6807515273
H        2.4244113830    1.5426785698    1.0288839628
O        0.2444836300    0.9909338422   -2.0770884625
H        1.1357012481    1.0889469246   -1.7283844048
H        0.0640378979    0.0128057966   -2.1376681030
O       -0.4538052142   -1.5958236640   -1.8891438556
H        0.0076978339   -1.8622738734   -1.0604579708
H       -0.5294418122   -2.3658964369   -2.4532698954
O       -0.8133412692    1.6630422452    0.3301338843
H       -0.6663369037    1.3098896844   -0.5920064223
H       -1.7708812944    1.6478426836    0.4475896668
18   
Iteration 10 Energy -458.66065996
O        1.0524472779   -1.6397111974    0.4592855904
H        1.5631547670   -2.2683499664    0.9767595923
H        1.4531240469   -0.7588717298    0.5940541922
O       -1.2124806608   -0.4741425309    2.1066389262
H       -0.6281617084   -0.9561205278    1.5049878428
H       -1.0944179830    0.4355839788    1.8060273003
O        1.8322750817    1.0688016408    0.6638830024
H        1.0725802605    1.6749695206    0.6770425344
H        2.5617950786    1.5214931898    1.0967451403
O        0.2774538173    0.9887330877   -2.0482546402
H        1.1885394815    0.9616724868   -1.7361531625
H        0.0044515769    0.0471757307   -2.1521449371
O       -0.5340917629   -1.6562832863   -1.8940156656
H       -0.0244569831   -1.8798456763   -1.0895469907
H       -0.4901677063   -2.4110740596   -2.4843680146
O       -0.9793487583    1.8642612542    0.2083942276
H       -0.6835040503    1.4719839816   -0.6493452910
H       -1.9315517754    1.7283641034    0.2468803530
18   
Iteration 11 Energy -458.66238405
O        1.0543518468   -1.6424606080    0.4625825623
H        1.5465491725   -2.2667952717    1.0025882227
H        1.4600657567   -0.7652614349    0.6044124371
O       -1.2079953384   -0.4667657120    2.1188669215
H       -0.6416060946   -0.9996767578    1.5434910482
H       -1.0715663270    0.4272353899    1.7796053443
O        1.8299378261    1.0736309601    0.6234561644
H        1.0153526240    1.5984682071    0.6930946162
H        2.5187243829    1.5625646732    1.0826281690
O        0.2612857931    0.9792452209   -2.0603457285
H        1.1695260913    0.9787424669   -1.7367257545
H        0.0256520742    0.0335796402   -2.1697189277
O       -0.5094448131   -1.6521892871   -1.8958191457
H       -0.0063974493   -1.8885509479   -1.0951007683
H       -0.5025062662   -2.4195647308   -2.4726859260
O       -0.9414289699    1.8785999812    0.2120017566
H       -0.6787836326    1.5329803920   -0.6723262215
H       -1.8940766764    1.7548578187    0.2668652298
18   
Iteration 12 Energy -458.66303661
O        1.0377893494   -1.6488526155    0.5014801776
H        1.5271883604   -2.2347694152    1.0860348939
H        1.4205273945   -0.7567262021    0.6179116647
O       -1.1582004683   -0.4615268553    2.1210324866
H       -0.6330806723   -1.0875400555    1.6047213628
H       -0.9839478574    0.3839676110    1.6895602211
O        1.7330879500    1.0617990468    0.5140598526
H        0.8558417695    1.3989392899    0.7692383665
H        2.3802185458    1.5835314103    0.9966247366
O        0.2621067072    1.0154954011   -2.0985891917
H        1.1557753742    1.0696044121   -1.7374894565
H        0.0819428150    0.0686155640   -2.2210823049
O       -0.4862817964   -1.6860858078   -1.8622737246
H        0.0274273507   -1.9207609827   -1.0748994417
H       -0.5028261619   -2.4623433983   -2.4280910271
O       -0.8410147107    1.9089994249    0.2072114654
H       -0.6519425474    1.6044035592   -0.7090149428
H       -1.7969714022    1.8818896130    0.3104348616
18   
Iteration 13 Energy -458.66382227
O        1.0515541480   -1.6523826642    0.4825729813
H        1.5386429037   -2.2451594394    1.0612455170
H        1.4481037925   -0.7661261539    0.5926181808
O       -1.1827709800   -0.4580693592    2.1337123710
H       -0.6458083549   -1.0706882589    1.6143005423
H       -1.0262903598    0.3911373207    1.7030040550
O        1.7776821950    1.0619079906    0.5541072751
H        0.9122467027    1.4771492560    0.7160752047
H        2.4208182218    1.5745507838    1.0518476314
O        0.2530637574    0.9996312746   -2.0966185422
H        1.1505553994    1.0172168458   -1.7431673953
H        0.0375614677    0.0548261096   -2.2068309729
O       -0.4808096879   -1.6715881374   -1.8829050734
H        0.0268690615   -1.9031988761   -1.0874116269
H       -0.4944069942   -2.4504161917   -2.4447440886
O       -0.8788629153    1.9091614823    0.2264706072
H       -0.6441771237    1.6022484456   -0.6790261166
H       -1.8363312339    1.8484395718    0.2916194503
18   
Iteration 14 Energy -458.66401564
O        1.0514053793   -1.6551025893    0.4853438378
H        1.5473732838   -2.2402036291    1.0641445637
H        1.4443297808   -0.7659423476    0.5841491978
O       -1.1777903718   -0.4565383230    2.1372892112
H       -0.6418724023   -1.0794325095    1.6298328486
H       -1.0279646054    0.3817434395    1.6831802171
O        1.7643588868    1.0525660111    0.5545990659
H        0.9042484771    1.4788179749    0.7189327566
H        2.4133981120    1.5570632859    1.0530238599
O        0.2499136194    1.0048771925   -2.0964714513
H        1.1477000458    1.0120962478   -1.7433441475
H        0.0246261416    0.0618976526   -2.2050833011
O       -0.4764477101   -1.6729730565   -1.8775817553
H        0.0338363651   -1.9035504687   -1.0830288218
H       -0.4786181390   -2.4498482094   -2.4422240566
O       -0.8696547823    1.9123161701    0.2196121579
H       -0.6536988922    1.6064756197   -0.6906904465
H       -1.8275031888    1.8743775391    0.2951862633
18   
Iteration 15 Energy -458.66456067
O        1.0553285880   -1.6795020892    0.5081924528
H        1.5959217191   -2.2289346975    1.0813046697
H        1.4165245936   -0.7721234879    0.5707955420
O       -1.1513588247   -0.4405028316    2.1496848224
H       -0.6223061727   -1.1163187670    1.7088321058
H       -1.0349302309    0.3290724562    1.5780174915
O        1.7168504694    1.0186799192    0.5394289893
H        0.8578978472    1.4517772932    0.7095252367
H        2.3651769387    1.4913999399    1.0688416699
O        0.2183763520    1.0223300730   -2.1159124328
H        1.1116987812    1.0096814489   -1.7500868949
H       -0.0276440001    0.0810033384   -2.2033228090
O       -0.4453058353   -1.6806498286   -1.8619009626
H        0.0716892088   -1.9001141671   -1.0658259675
H       -0.4085787620   -2.4530095500   -2.4314956850
O       -0.8341617521    1.9310531019    0.2078213387
H       -0.6717030693    1.6372333379   -0.7186690953
H       -1.7858358507    2.0175645104    0.3116395284
18   
Iteration 16 Energy -458.66494098
O        1.0607718034   -1.6956810848    0.5281704603
H        1.6435078833   -2.2324484650    1.0711795119
H        1.3971877364   -0.7771254297    0.5856868727
O       -1.1309473712   -0.4232409044    2.1494630596
H       -0.5986524186   -1.1271532240    1.7592471560
H       -1.0585639434    0.2892205857    1.5003130432
O        1.6941632509    0.9877748123    0.5391454058
H        0.8494538227    1.4519214289    0.7041997813
H        2.3512105372    1.4260214334    1.0866260752
O        0.1849636011    1.0272370749   -2.1306941064
H        1.0753423961    1.0134781690   -1.7566896987
H       -0.0644984998    0.0841210563   -2.2011503282
O       -0.4261477367   -1.6903506863   -1.8452992520
H        0.0945765490   -1.9033477162   -1.0485320888
H       -0.3436779759   -2.4467029660   -2.4313193551
O       -0.8326779549    1.9405901857    0.1970293131
H       -0.7035166109    1.6563427272   -0.7384649936
H       -1.7648550685    2.1379830031    0.3179591438
18   
Iteration 17 Energy -458.66543435
O        1.0753460548   -1.7355132992    0.5650972383
H        1.7162871574   -2.2658478639    1.0453788763
H        1.3800231506   -0.8044840998    0.6318717429
O       -1.1041583837   -0.3863045363    2.1399062864
H       -0.5621113183   -1.1165050552    1.8172476379
H       -1.1161785746    0.2317148148    1.3956583671
O        1.6834137752    0.9615184829    0.5319089145
H        0.8466529811    1.4444500509    0.6839314592
H        2.3284566040    1.3496146534    1.1287229300
O        0.1136379394    1.0237814791   -2.1569130079
H        1.0013893035    1.0370132661   -1.7760885792
H       -0.1152086561    0.0719077755   -2.1886263134
O       -0.3830858130   -1.7040125460   -1.8252361994
H        0.1324059969   -1.9155546742   -1.0238383854
H       -0.2445303222   -2.4321793853   -2.4358961931
O       -0.8468573893    1.9401274832    0.1850983409
H       -0.7659338408    1.6916604551   -0.7655963989
H       -1.7119086650    2.3272529988    0.3342432839
18   
Iteration 18 Energy -458.66584367
O        1.0787960993   -1.7433823647    0.5785000642
H        1.7292997763   -2.2897702487    1.0275782539
H        1.3923119890   -0.8164187458    0.6506620395
O       -1.0991331674   -0.3776221502    2.1336079441
H       -0.5572906289   -1.0998936584    1.7921581409
H       -1.1428025932    0.2508954009    1.3994969154
O        1.6931362381    0.9612187975    0.5331706216
H        0.8580847711    1.4455698319    0.6814202054
H        2.3334689672    1.3411576800    1.1407855204
O        0.0867659553    1.0131020049   -2.1630019700
H        0.9757921170    1.0625321732   -1.7890519250
H       -0.1094569790    0.0542129448   -2.1831333074
O       -0.3744846412   -1.7099777417   -1.8173022529
H        0.1382753035   -1.9249315580   -1.0164371030
H       -0.2206234529   -2.4235534809   -2.4414180125
O       -0.8679210980    1.9217740417    0.1919369291
H       -0.7831643482    1.6799307081   -0.7586051320
H       -1.7034143079    2.3737963655    0.3265030683
18   
Iteration 19 Energy -458.66639698
O        1.0864463640   -1.7594062931    0.5990040823
H        1.7418409054   -2.3383332691    0.9979431327
H        1.4275294624   -0.8439895169    0.6689324415
O       -1.0975616317   -0.3605377707    2.1284722905
H       -0.5678697908   -1.0598016696    1.7253223537
H       -1.1896556570    0.3099292103    1.4373189775
O        1.7260381182    0.9742344387    0.5302674211
H        0.8718196620    1.4211082865    0.6725398578
H        2.3345214370    1.3592603944    1.1677012977
O        0.0399031283    0.9954550145   -2.1667954547
H        0.9378575921    1.1114370521   -1.8334915423
H       -0.1007709043    0.0273705632   -2.1574396260
O       -0.3513911705   -1.7220863703   -1.8110625059
H        0.1535028677   -1.9405700785   -1.0081506401
H       -0.1800056479   -2.4190032244   -2.4494668589
O       -0.9172866365    1.8680725667    0.2142139652
H       -0.8178925352    1.6382054292   -0.7356618404
H       -1.6693855634    2.4572952367    0.3072226484
18   
Iteration 20 Energy -458.66660881
O        1.0896560504   -1.7600042044    0.6009990734
H        1.7465069682   -2.3438687566    0.9897135561
H        1.4438365576   -0.8493724571    0.6577535691
O       -1.0978012902   -0.3551668956    2.1358528502
H       -0.5730895615   -1.0518207491    1.7229517449
H       -1.2078702982    0.3145216354    1.4461398404
O        1.7216377948    0.9710578918    0.5274870254
H        0.8615771479    1.4059791613    0.6730631113
H        2.3206224570    1.3558728344    1.1745488738
O        0.0210282766    0.9944614480   -2.1658050662
H        0.9250961564    1.1229023112   -1.8549265163
H       -0.1085092679    0.0248528784   -2.1533228131
O       -0.3399246163   -1.7319041969   -1.8061792531
H        0.1669491562   -1.9451615011   -1.0027477670
H       -0.1515049687   -2.4220078028   -2.4471757183
O       -0.9336281108    1.8526472870    0.2205027521
H       -0.8241848582    1.6293548163   -0.7299957485
H       -1.6327575935    2.5062962998    0.2980104858
18   
Iteration 21 Energy -458.66697787
O        1.0944759259   -1.7521202954    0.5884015194
H        1.7508345176   -2.3367556417    0.9761249056
H        1.4652885302   -0.8468664315    0.6159602994
O       -1.1089637490   -0.3576652837    2.1754506867
H       -0.5916359616   -1.0415482574    1.7349119357
H       -1.2481005559    0.3181113390    1.4964836668
O        1.7098691494    0.9697391436    0.5218888044
H        0.8287906043    1.3663285663    0.6644325594
H        2.2793674297    1.3659205273    1.1889021431
O       -0.0072901762    0.9949402650   -2.1547149581
H        0.9160138825    1.1227748256   -1.9075429951
H       -0.1357950583    0.0247028609   -2.1480601744
O       -0.3170839927   -1.7499561960   -1.8097899749
H        0.1939805529   -1.9410379161   -1.0012671951
H       -0.0967900568   -2.4388322705   -2.4419907015
O       -0.9552603291    1.8242779839    0.2319602150
H       -0.8133949459    1.6085300614   -0.7175713228
H       -1.5366657669    2.5880967193    0.2732905865
18   
Iteration 22 Energy -458.66711577
O        1.0948354783   -1.7443855550    0.5830749093
H        1.7597575021   -2.3246622819    0.9626488813
H        1.4586702947   -0.8352480867    0.6111012868
O       -1.1115618694   -0.3631805425    2.2012660303
H       -0.5893787086   -1.0385067622    1.7528481370
H       -1.2742101032    0.3067941295    1.5220946545
O        1.6958661612    0.9659732987    0.5212816663
H        0.8132752178    1.3639184475    0.6576894357
H        2.2597757267    1.3575544784    1.1953586331
O       -0.0197896063    0.9903243838   -2.1535822836
H        0.9114649888    1.1108826003   -1.9341760194
H       -0.1518899605    0.0199051431   -2.1538578068
O       -0.3082006388   -1.7581598577   -1.8157840189
H        0.2029059490   -1.9361332532   -1.0029568627
H       -0.0627918374   -2.4410289648   -2.4452607350
O       -0.9629485782    1.8141447648    0.2324612472
H       -0.8152489603    1.6029622653   -0.7185850011
H       -1.4728910560    2.6274857928    0.2712478458
18   
Iteration 23 Energy -458.66725271
O        1.0854091585   -1.7144145468    0.5600382683
H        1.7471209616   -2.2876065497    0.9557629129
H        1.4386240383   -0.7999250820    0.6021178618
O       -1.1235369025   -0.3909425427    2.2521056971
H       -0.5931714015   -1.0436193834    1.7788081758
H       -1.2888856503    0.2992964327    1.5957336193
O        1.6793648795    0.9767139280    0.5214223676
H        0.7906287041    1.3709610592    0.6403442043
H        2.2333239612    1.3758003177    1.1985704952
O       -0.0123893196    0.9788227492   -2.1515622700
H        0.9289777583    1.0753669134   -1.9662336461
H       -0.1610309757    0.0103916311   -2.1770558002
O       -0.3098509009   -1.7598628926   -1.8429551945
H        0.1969955222   -1.9195897190   -1.0224093871
H       -0.0520371137   -2.4513178396   -2.4579106483
O       -0.9404406857    1.7968434877    0.2460268162
H       -0.7783711867    1.5682599198   -0.7008339326
H       -1.4130908470    2.6334621170    0.2549004603
18   
Iteration 24 Energy -458.66733217
O        1.0800772712   -1.7124617720    0.5630112068
H        1.7516376294   -2.2813597733    0.9485652687
H        1.4189424024   -0.7921650388    0.6138057060
O       -1.1195198685   -0.3938089576    2.2649658115
H       -0.5823303332   -1.0425746557    1.7934987578
H       -1.3025427860    0.2887568840    1.6054557076
O        1.6852962388    0.9819836819    0.5267208811
H        0.7981533392    1.3856558561    0.6288576187
H        2.2301467715    1.3707361582    1.2166413156
O       -0.0272384650    0.9685096317   -2.1586709628
H        0.9141883079    1.0705057531   -1.9767622615
H       -0.1673743677   -0.0015495483   -2.1841781697
O       -0.3033441397   -1.7633444498   -1.8535352992
H        0.1974362694   -1.9185057137   -1.0288022439
H       -0.0328583738   -2.4488266645   -2.4696954276
O       -0.9457744598    1.7884035798    0.2403211613
H       -0.7940837888    1.5701100255   -0.7104217089
H       -1.3731716473    2.6485750033    0.2670926386
18   
Iteration 25 Energy -458.66738921
O        1.0700012600   -1.7042169011    0.5623463529
H        1.7355878778   -2.2746835614    0.9560145658
H        1.4108736170   -0.7853018612    0.6192389600
O       -1.1167291467   -0.3990808257    2.2639207524
H       -0.5761631145   -1.0482322749    1.7968402837
H       -1.2875870327    0.2878721992    1.6057054026
O        1.6960198451    0.9898358822    0.5326521438
H        0.8113234492    1.3997260713    0.6286959796
H        2.2408548893    1.3771099867    1.2235691954
O       -0.0221549536    0.9659374554   -2.1643849004
H        0.9159842987    1.0715069303   -1.9678943783
H       -0.1587959164   -0.0043558694   -2.1915093455
O       -0.3100200556   -1.7630466255   -1.8612207165
H        0.1882074602   -1.9220365744   -1.0367612321
H       -0.0478828001   -2.4509614629   -2.4781751142
O       -0.9347972444    1.7872930664    0.2403765070
H       -0.7930172217    1.5604436466   -0.7092028675
H       -1.3940652117    2.6308307186    0.2666584113
18   
Iteration 26 Energy -458.66742763
O        1.0553038730   -1.6884336663    0.5571883362
H        1.7102737803   -2.2615721229    0.9646136328
H        1.4048663115   -0.7730956888    0.6145557145
O       -1.1150137508   -0.4077086040    2.2759380320
H       -0.5716332362   -1.0526583260    1.8064651846
H       -1.2766867333    0.2861970892    1.6228755504
O        1.7077685333    1.0030412639    0.5397044150
H        0.8209261337    1.4107962713    0.6246050964
H        2.2419879614    1.3884615232    1.2401368005
O       -0.0241293313    0.9598344665   -2.1708498382
H        0.9126685455    1.0730962291   -1.9722970754
H       -0.1540100635   -0.0110735441   -2.2023858803
O       -0.3116606326   -1.7684571915   -1.8765923445
H        0.1814807423   -1.9253284449   -1.0493932102
H       -0.0517939750   -2.4603812423   -2.4899263035
O       -0.9255123832    1.7789872199    0.2424083630
H       -0.7893988181    1.5460911259   -0.7061326800
H       -1.3877969570    2.6208436417    0.2659562067
18   
Iteration 27 Energy -458.66744269
O        1.0463117399   -1.6785519909    0.5536400555
H        1.6948836569   -2.2532520258    0.9690615049
H        1.4018466388   -0.7653950491    0.6086703142
O       -1.1131317182   -0.4107701277    2.2841592894
H       -0.5680668626   -1.0523657000    1.8119164761
H       -1.2721402789    0.2861443536    1.6336185716
O        1.7133093404    1.0092957794    0.5439244529
H        0.8248051360    1.4140995507    0.6255406889
H        2.2411263140    1.3911432168    1.2512875532
O       -0.0269554854    0.9577062668   -2.1740170999
H        0.9104230081    1.0750245605   -1.9811419566
H       -0.1540809955   -0.0133660217   -2.2073930624
O       -0.3112165475   -1.7754544250   -1.8857467230
H        0.1786767966   -1.9283960643   -1.0559333588
H       -0.0465529942   -2.4685336534   -2.4957262983
O       -0.9234151473    1.7740492783    0.2441350885
H       -0.7900264097    1.5371380924   -0.7037566425
H       -1.3781561915    2.6201239592    0.2646311463
18   
Iteration 28 Energy -458.66745364
O        1.0402057797   -1.6727653728    0.5508177989
H        1.6836580064   -2.2480373914    0.9732420609
H        1.4006237649   -0.7612199024    0.6019425176
O       -1.1104063231   -0.4098592148    2.2902411893
H       -0.5644395165   -1.0491907453    1.8159060200
H       -1.2705389513    0.2871569244    1.6400223464
O        1.7160593092    1.0129661972    0.5468349271
H        0.8258331902    1.4140540677    0.6280107332
H        2.2380855467    1.3883333268    1.2620197554
O       -0.0328945372    0.9553908120   -2.1758898031
H        0.9055616394    1.0765167665   -1.9911787983
H       -0.1568705532   -0.0159271014   -2.2110297368
O       -0.3081013084   -1.7816128029   -1.8926670368
H        0.1780060200   -1.9305997026   -1.0597169703
H       -0.0364095079   -2.4752341486   -2.4990087201
O       -0.9221016813    1.7717830434    0.2454494047
H       -0.7901501782    1.5344821666   -0.7025266042
H       -1.3684806993    2.6224030776    0.2644009161
18   
Iteration 29 Energy -458.66746761
O        1.0337086895   -1.6669211500    0.5471780101
H        1.6715045517   -2.2430868947    0.9768449496
H        1.3986110347   -0.7568063031    0.5951474085
O       -1.1057856376   -0.4052851135    2.2961148635
H       -0.5591013643   -1.0410543501    1.8176072930
H       -1.2700944910    0.2925312830    1.6476746770
O        1.7192771111    1.0151162361    0.5516811642
H        0.8283438424    1.4144710296    0.6331632829
H        2.2356439634    1.3786156964    1.2771208489
O       -0.0415600800    0.9521352191   -2.1768377838
H        0.8991539331    1.0764050974   -2.0069506537
H       -0.1628905389   -0.0193939932   -2.2140005663
O       -0.3035219458   -1.7897328185   -1.9012134074
H        0.1768784312   -1.9330223065   -1.0636925612
H       -0.0193360789   -2.4823367655   -2.5030972674
O       -0.9212579566    1.7708635790    0.2473677106
H       -0.7908003824    1.5310608822   -0.7001985209
H       -1.3611330815    2.6250806723    0.2629605524
18   
Iteration 30 Energy -458.66748690
O        1.0263442101   -1.6621382342    0.5428056678
H        1.6574823240   -2.2385580545    0.9817932559
H        1.3949241549   -0.7530413184    0.5877907980
O       -1.0974982655   -0.3942410468    2.3021763805
H       -0.5516714457   -1.0269955938    1.8185466219
H       -1.2696076660    0.3029835819    1.6550488831
O        1.7230083049    1.0157747073    0.5593364595
H        0.8318746928    1.4144752372    0.6407890234
H        2.2306351196    1.3584867417    1.3009288916
O       -0.0569647715    0.9458098996   -2.1779862311
H        0.8867456328    1.0750154370   -2.0306696782
H       -0.1732632722   -0.0262187444   -2.2181955277
O       -0.2950291862   -1.8000540041   -1.9124154116
H        0.1769540457   -1.9359094814   -1.0686527793
H        0.0077514380   -2.4894226645   -2.5090473986
O       -0.9181517769    1.7734580454    0.2498427664
H       -0.7900358938    1.5302957772   -0.6971937240
H       -1.3558576452    2.6289197148    0.2619720024
18   
Iteration 31 Energy -458.66750806
O        1.0199133380   -1.6591668825    0.5382458246
H        1.6455692051   -2.2359998955    0.9845111704
H        1.3899781891   -0.7503405573    0.5836078452
O       -1.0872238190   -0.3780945155    2.3076546102
H       -0.5459188153   -1.0095326937    1.8170901886
H       -1.2682879790    0.3194498334    1.6632973255
O        1.7275555086    1.0138638766    0.5706465208
H        0.8377293106    1.4158741637    0.6484894584
H        2.2239795120    1.3314628022    1.3308066983
O       -0.0759264633    0.9370360370   -2.1787741243
H        0.8708535139    1.0720308638   -2.0601366417
H       -0.1862956336   -0.0357058591   -2.2212953241
O       -0.2847593787   -1.8106383779   -1.9240721935
H        0.1790848062   -1.9392809761   -1.0746026176
H        0.0393507871   -2.4930689971   -2.5175320908
O       -0.9138219926    1.7790011833    0.2523242279
H       -0.7890269727    1.5290670755   -0.6933786299
H       -1.3551131164    2.6326829193    0.2599877519
18   
Iteration 32 Energy -458.66753195
O        1.0145510664   -1.6591025686    0.5339665334
H        1.6368022250   -2.2354969825    0.9856159741
H        1.3833356734   -0.7495108841    0.5820965154
O       -1.0748147471   -0.3570849076    2.3136083565
H       -0.5438224198   -0.9923240536    1.8166959043
H       -1.2635955119    0.3396100424    1.6706018429
O        1.7320880036    1.0095652422    0.5860594074
H        0.8440941782    1.4169558223    0.6546520070
H        2.2115294590    1.2999494325    1.3677175212
O       -0.0996140719    0.9257542948   -2.1808516085
H        0.8492546095    1.0696596158   -2.0951451236
H       -0.2010351787   -0.0481362438   -2.2239219552
O       -0.2721425211   -1.8212394500   -1.9351778734
H        0.1860365839   -1.9435932200   -1.0817552495
H        0.0737150111   -2.4926240547   -2.5289480833
O       -0.9066535288    1.7882157685    0.2538582082
H       -0.7873284249    1.5298101198   -0.6902062314
H       -1.3547604059    2.6382320266    0.2580038543
18   
Iteration 33 Energy -458.66756860
O        1.0072147443   -1.6600962672    0.5274856562
H        1.6263910976   -2.2362644049    0.9837931345
H        1.3731995806   -0.7492260256    0.5826035346
O       -1.0554916862   -0.3246796527    2.3249253538
H       -0.5463759500   -0.9707175652    1.8191581270
H       -1.2516794283    0.3710108507    1.6831004594
O        1.7392803487    1.0021639720    0.6144131330
H        0.8542970282    1.4186942802    0.6611579078
H        2.1856029708    1.2551633102    1.4281140201
O       -0.1371022821    0.9081340408   -2.1860928767
H        0.8120920072    1.0689065862   -2.1527505611
H       -0.2227460980   -0.0677810538   -2.2263272223
O       -0.2525750773   -1.8374587379   -1.9508238783
H        0.2013422948   -1.9518141587   -1.0940143274
H        0.1238605993   -2.4881851865   -2.5489175151
O       -0.8946327836    1.8023578933    0.2544238425
H       -0.7862053617    1.5294724757   -0.6867216137
H       -1.3488320044    2.6489596434    0.2533428259
18   
Iteration 34 Energy -458.66764899
O        0.9896655574   -1.6620117547    0.5122475863
H        1.6019295654   -2.2380954153    0.9782012165
H        1.3509304840   -0.7491592306    0.5827600839
O       -1.0088863251   -0.2521552185    2.3549094701
H       -0.5563960840   -0.9273151330    1.8338130432
H       -1.2173970165    0.4392700428    1.7123600381
O        1.7567388570    0.9867860351    0.6889197578
H        0.8791282801    1.4202427625    0.6783786025
H        2.1098982705    1.1578221023    1.5674472994
O       -0.2244316279    0.8680366709   -2.2023245037
H        0.7119128948    1.0734222783   -2.2910270068
H       -0.2682354797   -0.1118163719   -2.2337954949
O       -0.2052032785   -1.8769593986   -1.9872582068
H        0.2410741420   -1.9732414639   -1.1239035706
H        0.2373101989   -2.4750405470   -2.5949229355
O       -0.8648674753    1.8325926860    0.2523694572
H       -0.7849111914    1.5282806639   -0.6815566072
H       -1.3206197717    2.6779812916    0.2402517706
18   
Iteration 35 Energy -458.66774089
O        0.9500120305   -1.6661605617    0.4740250778
H        1.5428774444   -2.2470352271    0.9593972125
H        1.3058997664   -0.7528789896    0.5840681152
O       -0.8857964286   -0.0757647038    2.4269832785
H       -0.5885099303   -0.8213242383    1.8911459899
H       -1.1232222867    0.6011223081    1.7787507342
O        1.8008976680    0.9503598448    0.9092609529
H        0.9580616034    1.4205806410    0.7522489594
H        1.8742627793    0.9188364788    1.8689363004
O       -0.4292441698    0.7691791057   -2.2459751253
H        0.3958592314    1.0840957255   -2.6259495126
H       -0.3566707496   -0.2111280569   -2.2670903360
O       -0.0748375027   -1.9763018281   -2.0815936420
H        0.3465248086   -2.0310538312   -1.2009985205
H        0.5091173059   -2.4228154448   -2.6999777436
O       -0.7857896126    1.9016353980    0.2372473199
H       -0.7809243077    1.5257144813   -0.6724334465
H       -1.2308776499    2.7515788984    0.1988243859
18   
Iteration 36 Energy -458.66796469
O        0.9692528103   -1.6758996071    0.4808762318
H        1.5718462127   -2.2602233076    0.9498257749
H        1.3268072509   -0.7651462239    0.5945685313
O       -0.8975700152   -0.0937325654    2.4169820592
H       -0.6031410916   -0.8471803589    1.8911385623
H       -1.1213658284    0.5791778387    1.7596597350
O        1.7812811682    0.9394177637    0.8912833664
H        0.9453899387    1.4180423734    0.7242746148
H        1.8724777742    0.9582202110    1.8498706049
O       -0.4171528554    0.7821245197   -2.2393495446
H        0.4265284752    1.0861876416   -2.5874790268
H       -0.3529530580   -0.1984612833   -2.2477646238
O       -0.0907478379   -1.9468673413   -2.0582798991
H        0.3513983333   -2.0073006373   -1.1884262815
H        0.4636167179   -2.4155600789   -2.6873696053
O       -0.7866282342    1.8941024891    0.2275527067
H       -0.7757011242    1.5293066407   -0.6863236274
H       -1.2356986365    2.7424319256    0.1958304213
18   
Iteration 37 Energy -458.66857056
O        0.9776406338   -1.7009879532    0.4531755675
H        1.5771122057   -2.3061539062    0.8998956480
H        1.3342746448   -0.8014572373    0.6327636764
O       -0.7658983226    0.0660094922    2.4721293280
H       -0.6683989249   -0.7712681503    2.0045853253
H       -1.0086977209    0.6939543716    1.7769033625
O        1.7729265702    0.8744617326    1.1531506343
H        1.0357520855    1.4004005039    0.7899488656
H        1.5198032616    0.7704793459    2.0782076942
O       -0.6233610823    0.7034718724   -2.2825373044
H        0.0420055547    1.0817965625   -2.8653752875
H       -0.4322242809   -0.2611676808   -2.2715501409
O        0.0470702648   -1.9856313583   -2.1249449533
H        0.4912457176   -2.0077864874   -1.2527787387
H        0.6730453867   -2.3261479003   -2.7692683641
O       -0.6842289591    1.9440468573    0.1751523216
H       -0.7545751867    1.5383697465   -0.7167661085
H       -1.1058518481    2.8062501889    0.1341784740
18   
Iteration 38 Energy -458.66112593
O        1.0131504106   -1.6990869600    0.4073596988
H        1.5923646616   -2.3574216251    0.8038049762
H        1.3688836018   -0.8381091095    0.7236969864
O       -0.5848509816    0.2450758675    2.5790804659
H       -0.7440582926   -0.6530872170    2.2683147986
H       -0.8750457451    0.7909564254    1.8314499295
O        1.6866647508    0.8161766496    1.6442575888
H        1.2449917006    1.2792792708    0.9116931589
H        0.9236213233    0.6326170121    2.2131313104
O       -0.9089702158    0.6125374377   -2.3715029447
H       -0.6082122322    1.0118885635   -3.1932228870
H       -0.5430939636   -0.3005814103   -2.3761496015
O        0.2599376499   -1.9934469686   -2.2518339583
H        0.6651626475   -1.9580995782   -1.3585196557
H        0.9625005581   -2.2039266739   -2.8729449261
O       -0.5094508564    1.9466843759    0.0868801370
H       -0.7071055739    1.5288748446   -0.7790268727
H       -0.8088494429    2.8583090955    0.0204017954
18   
Iteration 39 Energy -458.66838438
O        1.0053348941   -1.6642341751    0.4158249840
H        1.5694428273   -2.3320261861    0.8178643473
H        1.3890640118   -0.8060624537    0.7034499037
O       -0.7512882263    0.1502981823    2.5896781682
H       -0.7760800880   -0.7152826045    2.1665190826
H       -0.9977239620    0.7624266759    1.8793081853
O        1.8008436263    0.8875934676    1.3982537224
H        1.1714668120    1.3731287026    0.8380556563
H        1.2492501747    0.6801429274    2.1713593328
O       -0.7921063983    0.6412615157   -2.3284496784
H       -0.3570343764    1.0345002933   -3.0904781854
H       -0.5047118296   -0.2987282832   -2.3214300018
O        0.1732199528   -1.9780552654   -2.2244509402
H        0.5743388392   -1.9591439850   -1.3304567782
H        0.8578697418   -2.2696346865   -2.8325832670
O       -0.5900451934    1.8981592932    0.1337933651
H       -0.7222409645    1.4993451914   -0.7533574082
H       -0.8719598415    2.8149513902    0.0539695114
18   
Iteration 40 Energy -458.66760714
O        1.0493409511   -1.6897265448    0.4569266690
H        1.6364509196   -2.3389880036    0.8548335664
H        1.4194995171   -0.8069532113    0.6820784089
O       -0.8003209786    0.0964851431    2.5098827799
H       -0.7395599685   -0.7717503349    2.0939575586
H       -1.0440516546    0.6890489969    1.7821858373
O        1.7571369832    0.9108659037    1.1624911460
H        0.9198218375    1.2709887398    0.8205455845
H        1.5440898623    0.7469396770    2.0948032564
O       -0.7265589054    0.7024612226   -2.2937008647
H       -0.1554189729    1.0927842293   -2.9608081607
H       -0.4811509369   -0.2459436149   -2.2742368954
O        0.0952318825   -1.9210477940   -2.1236519492
H        0.5194365010   -1.9169485401   -1.2412234809
H        0.7480026939   -2.2739229338   -2.7345899470
O       -0.6427881003    1.8808428372    0.1400513076
H       -0.7292154748    1.5010935804   -0.7638373122
H       -0.9423061561    2.7924106474    0.0811624956
18   
Iteration 41 Energy -458.66767547
O        1.0714808463   -1.7094374894    0.4821034533
H        1.6757727355   -2.3263841070    0.9032134639
H        1.4201303277   -0.7997955203    0.6233010909
O       -0.7750379934    0.1024358329    2.4406469727
H       -0.6870677268   -0.7679584775    2.0334198192
H       -1.0452851403    0.6794206556    1.7114046996
O        1.7107027261    0.7618647791    1.1659455451
H        1.0124695051    1.2972910992    0.7400200215
H        1.4396497148    0.7438291386    2.0903803644
O       -0.7130070229    0.7174725038   -2.2855841612
H       -0.1169603207    1.1359023957   -2.9114411170
H       -0.4559326763   -0.2263931812   -2.2947651257
O        0.0728309124   -1.9124841965   -2.0570478377
H        0.4995539976   -1.9148771492   -1.1768408998
H        0.7387073770   -2.2348297837   -2.6706878350
O       -0.6830162166    1.8849684556    0.1487887724
H       -0.7484286336    1.4946054665   -0.7549390718
H       -0.9889224118    2.7930095778    0.0989518455
18   
Iteration 42 Energy -458.66919417
O        1.0555911550   -1.7169232437    0.4739787016
H        1.6621172936   -2.3410955517    0.8800702145
H        1.4108397933   -0.8191746501    0.6742425808
O       -0.7758935841    0.0952385202    2.4681622616
H       -0.6848931148   -0.7694390798    2.0516218452
H       -1.0364002750    0.6767371499    1.7386205220
O        1.7511296828    0.8232459300    1.1860318762
H        1.0535881641    1.3434126381    0.7426271734
H        1.4178045554    0.7564434473    2.0884078691
O       -0.7240548401    0.7158525392   -2.3088338397
H       -0.1271247914    1.1238794346   -2.9429676214
H       -0.4750846975   -0.2349115879   -2.2844770873
O        0.0818629743   -1.9106528785   -2.0854705467
H        0.4940044118   -1.9303537231   -1.1957340533
H        0.7421668137   -2.2512391571   -2.6949704257
O       -0.6780355270    1.8741763302    0.1475300788
H       -0.7619912259    1.4977059600   -0.7586083854
H       -0.9779867881    2.7857379223    0.1066388363
18   
Iteration 43 Energy -458.66963022
O        1.0390517150   -1.7010440911    0.4630192125
H        1.6259122119   -2.3335599744    0.8869672472
H        1.3950024842   -0.8098419889    0.6912938312
O       -0.7605143452    0.0993427151    2.5037649712
H       -0.6872404446   -0.7661449649    2.0852513259
H       -0.9840881409    0.6901478730    1.7683367126
O        1.7802981045    0.8358292810    1.2613162934
H        1.1449489668    1.3715125100    0.7524781729
H        1.3211281964    0.7501518963    2.1081588996
O       -0.7491048087    0.7027038816   -2.3323176481
H       -0.1834174924    1.1117351387   -2.9933326708
H       -0.4821443231   -0.2432809796   -2.3077194866
O        0.0900498499   -1.9061513719   -2.1186333365
H        0.4953410809   -1.9268604470   -1.2258158029
H        0.7472115400   -2.2630600901   -2.7221386758
O       -0.6313169998    1.8723400989    0.1359260674
H       -0.7376902108    1.4746664547   -0.7580953850
H       -0.9957873840    2.7601540585    0.0884102719
18   
Iteration 44 Energy -458.66985696
O        1.0489553265   -1.7141407193    0.4827189236
H        1.6302923816   -2.3613282564    0.8930070618
H        1.4133046637   -0.8344232235    0.7383825110
O       -0.7430406721    0.1277836988    2.4858914293
H       -0.6724617762   -0.7628765998    2.1227627684
H       -0.9649214129    0.6755732669    1.7155790307
O        1.7877488970    0.8211940961    1.3158105679
H        1.2282991082    1.3722235856    0.7442206270
H        1.2095550924    0.7125517880    2.0900288802
O       -0.7950420787    0.7176668623   -2.3542434774
H       -0.2339724337    1.1221891839   -3.0220015130
H       -0.5050338743   -0.2205000119   -2.3087359292
O        0.1071785606   -1.8910767797   -2.1094209038
H        0.5157697384   -1.9244476687   -1.2186520050
H        0.7495865359   -2.2686178418   -2.7162543604
O       -0.6031109575    1.8853174097    0.1126870340
H       -0.7331505233    1.5066555032   -0.7856171671
H       -1.0123165755    2.7548957067    0.1007065220
18   
Iteration 45 Energy -458.67002086
O        1.0562866085   -1.7214101247    0.4929524312
H        1.6288639725   -2.3735662982    0.9066702747
H        1.4320330532   -0.8423632952    0.7336704588
O       -0.7411811310    0.1382107072    2.4669020992
H       -0.6681064432   -0.7526514516    2.1039778032
H       -0.9613545540    0.6880746055    1.6971156548
O        1.7903786230    0.8083063701    1.3265029652
H        1.2567197287    1.3728040528    0.7447088023
H        1.1906257036    0.6971430707    2.0847598287
O       -0.8020128534    0.7199432798   -2.3585069356
H       -0.2493358233    1.1339071564   -3.0274347075
H       -0.5039114908   -0.2152428220   -2.3183313253
O        0.1074238946   -1.8775711645   -2.0949073947
H        0.5101515862   -1.9151479459   -1.2021142319
H        0.7487901596   -2.2635404850   -2.6975669605
O       -0.6014950609    1.8818341539    0.1112268554
H       -0.7342084389    1.4985918839   -0.7853212757
H       -1.0320275342    2.7413183068    0.1025656577
18   
Iteration 46 Energy -458.67016954
O        1.0818516040   -1.7401392725    0.5263599812
H        1.6555969983   -2.3994236218    0.9256223331
H        1.4677301369   -0.8610914009    0.7516550831
O       -0.7438954861    0.1456945876    2.4193992850
H       -0.6638101672   -0.7476160697    2.0636892643
H       -0.9558411186    0.6920194348    1.6436867370
O        1.7891409262    0.7744133011    1.3235695526
H        1.2982831014    1.3627835299    0.7296751761
H        1.1608094480    0.6770255772    2.0611875190
O       -0.8117309913    0.7367405383   -2.3680441741
H       -0.2571808739    1.1604464565   -3.0294136592
H       -0.5048665026   -0.1947321845   -2.3229693469
O        0.0969277090   -1.8386489299   -2.0497399880
H        0.4971328993   -1.8838279737   -1.1562436161
H        0.7271962815   -2.2491069176   -2.6475867224
O       -0.6029636303    1.8755827423    0.1027395125
H       -0.7363530257    1.4928287834   -0.7948109778
H       -1.0703873086    2.7156914194    0.1080940408
18   
Iteration 47 Energy -458.67017176
O        1.0854872676   -1.7399612937    0.5340576389
H        1.6607330864   -2.4002691375    0.9297075645
H        1.4743185325   -0.8604656506    0.7544632340
O       -0.7477075681    0.1449618539    2.4166775493
H       -0.6663982826   -0.7461848426    2.0557334909
H       -0.9577306449    0.6973522992    1.6443808873
O        1.8022056352    0.7847036978    1.3289563498
H        1.2869250469    1.3491901937    0.7322277491
H        1.1774799971    0.6620523549    2.0663912350
O       -0.8234969297    0.7375691212   -2.3781931079
H       -0.2828259845    1.1624556520   -3.0498202235
H       -0.5103231461   -0.1924080214   -2.3367512639
O        0.1010900203   -1.8309462049   -2.0410477705
H        0.4957752873   -1.8767112952   -1.1451536580
H        0.7328982549   -2.2457858335   -2.6340951273
O       -0.6004264979    1.8702015494    0.1004736517
H       -0.7345703544    1.4913986424   -0.7986788473
H       -1.0657937198    2.7114869146    0.1075406478
18   
Iteration 48 Energy -458.67021729
O        1.0874859567   -1.7370420589    0.5359323459
H        1.6691201422   -2.3951887982    0.9262106214
H        1.4740878260   -0.8564527727    0.7565359980
O       -0.7533762581    0.1326112038    2.4197939409
H       -0.6712131323   -0.7557269806    2.0523852257
H       -0.9599662010    0.6904915227    1.6508120006
O        1.8022007961    0.7821943367    1.3281529213
H        1.2966175378    1.3559876393    0.7303182163
H        1.1740662989    0.6692573444    2.0631212414
O       -0.8229527366    0.7397651847   -2.3805054110
H       -0.2802777535    1.1606556905   -3.0528705552
H       -0.5123401007   -0.1913348493   -2.3363482351
O        0.0975270765   -1.8279192223   -2.0365081622
H        0.4934329127   -1.8729052585   -1.1409731178
H        0.7280203986   -2.2447441770   -2.6295550179
O       -0.6021115610    1.8659620488    0.0977893958
H       -0.7343693550    1.4909010201   -0.8030878971
H       -1.0583118472    2.7121281265    0.1056664892
18   
Iteration 49 Energy -458.67024432
O        1.0931511140   -1.7385739462    0.5408737035
H        1.6842891732   -2.3943345302    0.9208875456
H        1.4757050956   -0.8574379997    0.7660343974
O       -0.7562049436    0.1227293530    2.4159686172
H       -0.6731552146   -0.7676184489    2.0536318535
H       -0.9620064074    0.6749550059    1.6431123116
O        1.7999820075    0.7818373345    1.3273625616
H        1.2987317395    1.3626265562    0.7328440473
H        1.1714422443    0.6725040190    2.0623705393
O       -0.8268462117    0.7447735558   -2.3853828046
H       -0.2806566876    1.1583089579   -3.0596835191
H       -0.5175223326   -0.1861378713   -2.3295624800
O        0.0933669290   -1.8211664688   -2.0290906863
H        0.4933109475   -1.8657102895   -1.1350520643
H        0.7192139966   -2.2430725548   -2.6234842902
O       -0.5989326983    1.8662174151    0.0917474657
H       -0.7337164053    1.4951719160   -0.8102356408
H       -1.0525123462    2.7135679963    0.1045284427
18   
Iteration 50 Energy -458.67026853
O        1.0994218309   -1.7379565303    0.5493692316
H        1.7038659452   -2.3879927474    0.9182515573
H        1.4773242226   -0.8533025848    0.7689313070
O       -0.7635429028    0.1066983332    2.4085176503
H       -0.6713954854   -0.7827366917    2.0460082617
H       -0.9721099996    0.6574319145    1.6357761373
O        1.8012825166    0.7793013264    1.3333966314
H        1.3110512627    1.3641085953    0.7337071311
H        1.1676185566    0.6791425934    2.0651316633
O       -0.8338366356    0.7491398642   -2.3951649446
H       -0.2896618373    1.1557991233   -3.0752705266
H       -0.5245016778   -0.1812230699   -2.3314868660
O        0.0885857808   -1.8140261030   -2.0154224414
H        0.4896030838   -1.8581935820   -1.1216847142
H        0.7124083360   -2.2403787455   -2.6087278127
O       -0.5963382442    1.8643985023    0.0880288464
H       -0.7320844904    1.5016510378   -0.8171133875
H       -1.0400502620    2.7167787642    0.1046222758
18   
Iteration 51 Energy -458.67029318
O        1.1126946305   -1.7391670651    0.5634067768
H        1.7303267356   -2.3874876817    0.9130266860
H        1.4884573705   -0.8536292094    0.7832714919
O       -0.7694875478    0.0883939858    2.3954802134
H       -0.6705977575   -0.8016712979    2.0360596935
H       -0.9753314601    0.6372235940    1.6208036265
O        1.8016481849    0.7852424100    1.3416097321
H        1.3104865182    1.3682663180    0.7413859144
H        1.1647647887    0.6763842651    2.0693499194
O       -0.8486033141    0.7565449748   -2.4090473792
H       -0.3120678819    1.1568348782   -3.0989288725
H       -0.5329149933   -0.1706896711   -2.3347935161
O        0.0823315653   -1.7975117860   -1.9936413561
H        0.4883002309   -1.8448947303   -1.1022442985
H        0.6955613957   -2.2363379582   -2.5889014426
O       -0.5864575552    1.8591907106    0.0777257667
H       -0.7272760414    1.5073261537   -0.8308744143
H       -1.0241948691    2.7146221094    0.1031814584
18   
Iteration 52 Energy -458.67031798
O        1.1233548779   -1.7363621631    0.5762713300
H        1.7506757578   -2.3822552320    0.9127158385
H        1.4970505335   -0.8496259124    0.7944559390
O       -0.7729739927    0.0712411914    2.3774243774
H       -0.6599509823   -0.8184441792    2.0211461543
H       -0.9735137776    0.6167549084    1.5992713564
O        1.8046825448    0.7904651738    1.3606939956
H        1.3156290703    1.3674506467    0.7535636630
H        1.1615011002    0.6785300932    2.0822622684
O       -0.8625873539    0.7628030340   -2.4224936535
H       -0.3366659389    1.1569193241   -3.1241342850
H       -0.5413456616   -0.1612230833   -2.3380444183
O        0.0729562984   -1.7848544149   -1.9759333674
H        0.4820604989   -1.8335277424   -1.0861327311
H        0.6760348361   -2.2381426542   -2.5707252960
O       -0.5703437565    1.8594975735    0.0660883356
H       -0.7185251668    1.5111447043   -0.8424143971
H       -1.0203988877    2.7082687321    0.1028548903
18   
Iteration 53 Energy -458.67034004
O        1.1320274311   -1.7289555115    0.5849586836
H        1.7621145922   -2.3761293930    0.9136292164
H        1.5067488112   -0.8427506567    0.8037360099
O       -0.7757587832    0.0577364918    2.3640344071
H       -0.6424079308   -0.8289205475    2.0069939004
H       -0.9747384726    0.6019910894    1.5847615214
O        1.8031254535    0.7980617085    1.3786269065
H        1.3148142622    1.3685934462    0.7643149673
H        1.1516673484    0.6753143239    2.0907890363
O       -0.8737234187    0.7657398722   -2.4315751424
H       -0.3600767224    1.1580380008   -3.1432346300
H       -0.5490524295   -0.1568235224   -2.3460934199
O        0.0672773917   -1.7775252322   -1.9651991324
H        0.4785692932   -1.8254659001   -1.0766172700
H        0.6591549165   -2.2479148511   -2.5579034309
O       -0.5567048153    1.8558167104    0.0602766260
H       -0.7102920738    1.5167129657   -0.8509257562
H       -1.0051048538    2.7051210056    0.1062975065
18   
Iteration 54 Energy -458.67036129
O        1.1380913575   -1.7207106381    0.5869684592
H        1.7652134933   -2.3712392925    0.9146316914
H        1.5146863020   -0.8361445881    0.8100259558
O       -0.7777399699    0.0481898714    2.3493552953
H       -0.6220992830   -0.8322075721    1.9853811338
H       -0.9714750832    0.5971213362    1.5719835045
O        1.8019214154    0.8032524211    1.3965852932
H        1.3179861135    1.3707818585    0.7759924800
H        1.1418691073    0.6779833835    2.1006001386
O       -0.8764519039    0.7676327808   -2.4316633990
H       -0.3733919670    1.1592194503   -3.1510167803
H       -0.5518152699   -0.1551430536   -2.3495525838
O        0.0589330429   -1.7766967875   -1.9588822482
H        0.4760102077   -1.8216415683   -1.0731600140
H        0.6377589922   -2.2634502749   -2.5511994659
O       -0.5457039845    1.8555395262    0.0565323575
H       -0.7019738352    1.5170595457   -0.8544083762
H       -1.0041787353    2.6990936011    0.1086965581
18   
Iteration 55 Energy -458.67037926
O        1.1446103932   -1.7111320795    0.5854499414
H        1.7674977341   -2.3645500968    0.9154765269
H        1.5212839571   -0.8278793004    0.8149334615
O       -0.7829085065    0.0364744214    2.3358004375
H       -0.6012114053   -0.8351883502    1.9624454807
H       -0.9720333994    0.5918280734    1.5617323656
O        1.7996785730    0.8081141839    1.4102450453
H        1.3217507655    1.3767892182    0.7856552593
H        1.1316141562    0.6820941380    2.1067725271
O       -0.8738310833    0.7688818139   -2.4280863048
H       -0.3764061105    1.1575201981   -3.1527941811
H       -0.5552069838   -0.1563582575   -2.3494293366
O        0.0497004320   -1.7788757812   -1.9552965221
H        0.4752499778   -1.8176525015   -1.0735162856
H        0.6128825154   -2.2844120109   -2.5468672631
O       -0.5390883431    1.8561629419    0.0567832769
H       -0.6949777458    1.5193381270   -0.8549156646
H       -1.0009649266    2.6974852623    0.1124812358
18   
Iteration 56 Energy -458.67039166
O        1.1522328067   -1.7046064405    0.5822132912
H        1.7718399984   -2.3598355839    0.9148694993
H        1.5278888792   -0.8223499966    0.8178131527
O       -0.7896373966    0.0254551608    2.3241568919
H       -0.5909557744   -0.8389106943    1.9422366243
H       -0.9739034261    0.5882049575    1.5541597819
O        1.7987841452    0.8117947142    1.4176900070
H        1.3246576150    1.3832894403    0.7927153312
H        1.1270809325    0.6862042864    2.1109284779
O       -0.8693998131    0.7700176608   -2.4234436065
H       -0.3731667471    1.1537106777   -3.1514841603
H       -0.5574024571   -0.1576114028   -2.3455612457
O        0.0412145482   -1.7812579803   -1.9506786504
H        0.4769439018   -1.8156928900   -1.0737894599
H        0.5898334966   -2.3004084550   -2.5440508454
O       -0.5371425405    1.8590771238    0.0584534338
H       -0.6909764532    1.5219742394   -0.8534991921
H       -1.0002517156    2.6995851826    0.1141406691
18   
Iteration 57 Energy -458.67040434
O        1.1638076170   -1.6992392871    0.5772923712
H        1.7806375823   -2.3545448366    0.9148907245
H        1.5358453872   -0.8169868088    0.8185515285
O       -0.7986324097    0.0123464247    2.3108059037
H       -0.5865307180   -0.8453214904    1.9209744531
H       -0.9775925872    0.5828913922    1.5452582310
O        1.7978495188    0.8164144045    1.4229403990
H        1.3246275382    1.3906889554    0.7998343548
H        1.1253275695    0.6886373095    2.1148726531
O       -0.8641817615    0.7710384495   -2.4180630631
H       -0.3657622253    1.1474457442   -3.1484237664
H       -0.5604944626   -0.1591949551   -2.3383075570
O        0.0316832171   -1.7839092671   -1.9441793370
H        0.4805564356   -1.8146529890   -1.0738628300
H        0.5630292337   -2.3166582066   -2.5411041281
O       -0.5366395973    1.8651966738    0.0611447753
H       -0.6877161332    1.5279103123   -0.8511420535
H       -0.9981742045    2.7065781743    0.1153873408
18   
Iteration 58 Energy -458.67041730
O        1.1804694251   -1.6943967806    0.5714516473
H        1.7951652770   -2.3479647268    0.9160875528
H        1.5464233117   -0.8111499749    0.8174221660
O       -0.8089519681   -0.0031158265    2.2944950509
H       -0.5876919602   -0.8546165304    1.8964003208
H       -0.9821550031    0.5764850173    1.5345186678
O        1.7963950464    0.8222297950    1.4282979535
H        1.3208870607    1.3979457816    0.8083253542
H        1.1252981382    0.6884180778    2.1200996113
O       -0.8597125244    0.7722379264   -2.4128211436
H       -0.3578330356    1.1402217163   -3.1451630417
H       -0.5638677705   -0.1600947933   -2.3290407849
O        0.0203592859   -1.7866443200   -1.9346062520
H        0.4847147719   -1.8158860843   -1.0724691353
H        0.5317486641   -2.3326759529   -2.5368285368
O       -0.5353520543    1.8741460202    0.0636835267
H       -0.6841876580    1.5362921482   -0.8486582555
H       -0.9940690065    2.7172085069    0.1156752985
18   
Iteration 59 Energy -458.67042870
O        1.1999111394   -1.6909047925    0.5654950187
H        1.8137610767   -2.3403900336    0.9190048272
H        1.5573577715   -0.8052441745    0.8140978918
O       -0.8181011370   -0.0180353269    2.2776722333
H       -0.5922947188   -0.8647765134    1.8722288744
H       -0.9869386102    0.5698080436    1.5232448977
O        1.7935275327    0.8281750353    1.4335990172
H        1.3130553678    1.4035718620    0.8171155101
H        1.1249291319    0.6848314099    2.1254208767
O       -0.8568126828    0.7736209605   -2.4084465846
H       -0.3503895120    1.1346008085   -3.1412369506
H       -0.5670556892   -0.1600638521   -2.3198398662
O        0.0085170849   -1.7892597222   -1.9237345579
H        0.4875127739   -1.8192762604   -1.0697702550
H        0.5005178943   -2.3469165129   -2.5313778130
O       -0.5320635095    1.8840983422    0.0651267419
H       -0.6801618627    1.5457533511   -0.8470718518
H       -0.9876320510    2.7290473752    0.1153419902
18   
Iteration 60 Energy -458.67043617
O        1.2156198153   -1.6887641941    0.5610097128
H        1.8301096844   -2.3336922663    0.9215218790
H        1.5654039963   -0.8004668404    0.8104272046
O       -0.8230548348   -0.0278267267    2.2658772507
H       -0.5970436994   -0.8718797027    1.8550797297
H       -0.9905860603    0.5655534932    1.5157046044
O        1.7898411976    0.8319517951    1.4382478372
H        1.3051125782    1.4062328567    0.8238653218
H        1.1224956488    0.6796857077    2.1290720475
O       -0.8557556017    0.7749185942   -2.4061354450
H       -0.3454955614    1.1328407971   -3.1377930373
H       -0.5687503076   -0.1592291066   -2.3141876406
O       -0.0009593142   -1.7912807882   -1.9151484865
H        0.4874769729   -1.8233540795   -1.0667142715
H        0.4782613437   -2.3560128972   -2.5264747845
O       -0.5275229201    1.8909358686    0.0650398482
H       -0.6765584651    1.5518581083   -0.8467544569
H       -0.9809544727    2.7371693810    0.1142326865
18   
Iteration 61 Energy -458.67044044
O        1.2247919275   -1.6876795030    0.5580547726
H        1.8408763120   -2.3291993790    0.9218717188
H        1.5694985536   -0.7974395757    0.8077346032
O       -0.8242021526   -0.0317140321    2.2605443440
H       -0.5997606237   -0.8748259630    1.8469665869
H       -0.9930147073    0.5639481216    1.5125841513
O        1.7865584255    0.8330849964    1.4417826543
H        1.3006049244    1.4069740132    0.8277839702
H        1.1179818485    0.6752004834    2.1301460580
O       -0.8552206707    0.7759102364   -2.4054185731
H       -0.3415370268    1.1338109392   -3.1346686884
H       -0.5692184732   -0.1584185840   -2.3120695083
O       -0.0071882225   -1.7926349259   -1.9104018179
H        0.4856629230   -1.8260443129   -1.0646184026
H        0.4662005309   -2.3606052845   -2.5233265080
O       -0.5238301142    1.8937679359    0.0641643683
H       -0.6742115926    1.5539656848   -0.8472186065
H       -0.9763518618    2.7405391492    0.1129588773
18   
Iteration 62 Energy -458.67044364
O        1.2310243421   -1.6864683517    0.5556735083
H        1.8492438603   -2.3258458363    0.9196614037
H        1.5723942108   -0.7950640900    0.8063290523
O       -0.8241401502   -0.0333859117    2.2578027874
H       -0.6009594803   -0.8760243403    1.8425288550
H       -0.9949918134    0.5632873232    1.5111436512
O        1.7839867936    0.8330530082    1.4454754336
H        1.2997080498    1.4076816591    0.8307023421
H        1.1119476129    0.6717323623    2.1298488364
O       -0.8540523743    0.7769907842   -2.4055752623
H       -0.3361861974    1.1354004202   -3.1315695610
H       -0.5694459856   -0.1577480495   -2.3114500238
O       -0.0128120668   -1.7934900451   -1.9070618458
H        0.4831427459   -1.8271937851   -1.0631053812
H        0.4566511437   -2.3640975265   -2.5206037869
O       -0.5213036693    1.8945600099    0.0631964324
H       -0.6725961353    1.5539973338   -0.8478470039
H       -0.9739708864    2.7412550354    0.1117205624
18   
Iteration 63 Energy -458.67044751
O        1.2386433263   -1.6846749312    0.5524172662
H        1.8601266212   -2.3222295803    0.9140649827
H        1.5764530555   -0.7923644696    0.8054662817
O       -0.8242647679   -0.0351785792    2.2543410632
H       -0.6018788565   -0.8773685557    1.8376720210
H       -0.9973035826    0.5622598269    1.5087619072
O        1.7814520778    0.8328064042    1.4505492662
H        1.3015816073    1.4095348345    0.8342497077
H        1.1033848571    0.6681658658    2.1285057865
O       -0.8509348664    0.7789080529   -2.4062985166
H       -0.3250208054    1.1369886361   -3.1266123906
H       -0.5701171385   -0.1569323884   -2.3107683983
O       -0.0212296466   -1.7940676223   -1.9023284953
H        0.4797187206   -1.8270801643   -1.0612707526
H        0.4416791572   -2.3695232006   -2.5163566572
O       -0.5196990313    1.8949912457    0.0623617741
H       -0.6710338658    1.5535686255   -0.8484573786
H       -0.9739168620    2.7408360000    0.1105725327
18   
Iteration 64 Energy -458.67045282
O        1.2505459265   -1.6816866270    0.5473087015
H        1.8771529277   -2.3174119034    0.9032888443
H        1.5835630554   -0.7886788792    0.8050032845
O       -0.8255252624   -0.0387922037    2.2477712146
H       -0.6032727501   -0.8803929193    1.8298134032
H       -1.0000034374    0.5597292920    1.5032896255
O        1.7788514243    0.8331367360    1.4580070601
H        1.3066094862    1.4136516684    0.8395159568
H        1.0917467931    0.6641683446    2.1262038086
O       -0.8442005222    0.7825786815   -2.4080890731
H       -0.3032311861    1.1380054673   -3.1184978492
H       -0.5716170963   -0.1554791776   -2.3093353542
O       -0.0354788696   -1.7941476172   -1.8937642486
H        0.4749188019   -1.8254475178   -1.0582976823
H        0.4141839150   -2.3793633495   -2.5084111166
O       -0.5196035000    1.8957616422    0.0620270094
H       -0.6692653509    1.5535416621   -0.8488698693
H       -0.9777343550    2.7394667007    0.1099062849
18   
Iteration 65 Energy -458.67045938
O        1.2670945468   -1.6777166661    0.5402007124
H        1.9006889576   -2.3114104278    0.8872427681
H        1.5938741892   -0.7842671962    0.8045424329
O       -0.8283521653   -0.0448657342    2.2372550529
H       -0.6056903747   -0.8860467609    1.8187485819
H       -1.0022237785    0.5549512928    1.4935002050
O        1.7766125140    0.8348136172    1.4668952494
H        1.3138093412    1.4202774155    0.8463156833
H        1.0792266357    0.6602094810    2.1233326211
O       -0.8327640102    0.7884584177   -2.4114341147
H       -0.2690522332    1.1377059300   -3.1071469713
H       -0.5736345758   -0.1528785432   -2.3070062428
O       -0.0558723802   -1.7932691992   -1.8804961098
H        0.4690324429   -1.8222924986   -1.0539507586
H        0.3719360876   -2.3941945054   -2.4955413184
O       -0.5223032265    1.8971129588    0.0627228872
H       -0.6676136213    1.5549287025   -0.8489381519
H       -0.9871283493    2.7371237163    0.1106274733
18   
Iteration 66 Energy -458.67046602
O        1.2849463073   -1.6735974528    0.5324188832
H        1.9262257248   -2.3049253561    0.8693452464
H        1.6049793550   -0.7798939816    0.8034643166
O       -0.8320457877   -0.0525850636    2.2249395248
H       -0.6088850964   -0.8938580820    1.8070951630
H       -1.0028015544    0.5483308060    1.4811588483
O        1.7751673984    0.8380237308    1.4746639702
H        1.3199113330    1.4278441534    0.8531338184
H        1.0700198905    0.6571126454    2.1212127606
O       -0.8180297236    0.7956914272   -2.4162876672
H       -0.2292900954    1.1359213073   -3.0956962673
H       -0.5747764554   -0.1490338801   -2.3046201240
O       -0.0781900522   -1.7911067970   -1.8647334816
H        0.4631306719   -1.8185058940   -1.0487949688
H        0.3225270399   -2.4110450662   -2.4790826527
O       -0.5279895222    1.8983786908    0.0644368652
H       -0.6665065134    1.5579620215   -0.8489001560
H       -1.0007529199    2.7339267909    0.1131159207
18   
Iteration 67 Energy -458.67047211
O        1.3012907982   -1.6698078280    0.5252124367
H        1.9502390961   -2.2979901158    0.8530061168
H        1.6145563920   -0.7756041048    0.8012890281
O       -0.8354238844   -0.0609763418    2.2135300412
H       -0.6117766791   -0.9027889448    1.7973191800
H       -1.0018622665    0.5404545430    1.4690278162
O        1.7738828903    0.8422252807    1.4801878957
H        1.3218114507    1.4345925102    0.8591851208
H        1.0652304579    0.6547175892    2.1208853430
O       -0.8022812151    0.8032213214   -2.4221340186
H       -0.1922003696    1.1336167557   -3.0875872341
H       -0.5738503651   -0.1441955057   -2.3030882224
O       -0.0985624532   -1.7876924698   -1.8490392116
H        0.4577254325   -1.8149019855   -1.0432696012
H        0.2742391839   -2.4270298915   -2.4610066858
O       -0.5349715819    1.8986609785    0.0662447630
H       -0.6655032075    1.5620714209   -0.8495830823
H       -1.0149036793    2.7300667882    0.1166903146
18   
Iteration 68 Energy -458.67047943
O        1.3212690030   -1.6646316464    0.5167675497
H        1.9803816273   -2.2873257134    0.8343526009
H        1.6252418679   -0.7691271101    0.7976045696
O       -0.8390301001   -0.0729876879    2.2004264538
H       -0.6138507391   -0.9152451826    1.7862779440
H       -1.0005690179    0.5287172717    1.4549225112
O        1.7709682106    0.8481243077    1.4862224765
H        1.3187130195    1.4420210033    0.8671288242
H        1.0611271269    0.6515418183    2.1225940402
O       -0.7818992795    0.8130595796   -2.4302985848
H       -0.1505465773    1.1312432474   -3.0818608232
H       -0.5703440474   -0.1369898906   -2.3025878318
O       -0.1225474153   -1.7822584854   -1.8295117091
H        0.4508344589   -1.8110442843   -1.0359430694
H        0.2139799227   -2.4463500967   -2.4360459852
O       -0.5427748484    1.8976760551    0.0675729146
H       -0.6630030257    1.5677004263   -0.8519517197
H       -1.0303101860    2.7245163881    0.1211998385
18   
Iteration 69 Energy -458.67049108
O        1.3540495823   -1.6556219279    0.5028193096
H        2.0313671188   -2.2667723465    0.8037741619
H        1.6411304838   -0.7571953359    0.7905313291
O       -0.8438133361   -0.0938405862    2.1816225112
H       -0.6156215184   -0.9365442731    1.7705020893
H       -0.9997342779    0.5076227387    1.4345664766
O        1.7635497367    0.8575593124    1.4952899697
H        1.3071383152    1.4526915581    0.8806374370
H        1.0542447775    0.6453585347    2.1268530559
O       -0.7464645703    0.8297858109   -2.4445065925
H       -0.0861647272    1.1286761828   -3.0763379822
H       -0.5612595437   -0.1237819683   -2.3042792065
O       -0.1604456740   -1.7719476404   -1.7978790061
H        0.4388660850   -1.8058221890   -1.0240229725
H        0.1138565635   -2.4757731782   -2.3907050313
O       -0.5538473277    1.8940057441    0.0682700403
H       -0.6568625549    1.5762518090   -0.8575130818
H       -1.0523491325    2.7139877548    0.1272474921
18   
Iteration 70 Energy -458.67050575
O        1.3886667617   -1.6458772970    0.4866121328
H        2.0897058672   -2.2403456982    0.7656549258
H        1.6550455549   -0.7434432552    0.7808280663
O       -0.8469784913   -0.1168403192    2.1675421916
H       -0.6173280015   -0.9609329362    1.7605692428
H       -1.0003834125    0.4821176134    1.4178816504
O        1.7520434637    0.8667424663    1.5021152224
H        1.2852222946    1.4611147319    0.8944064033
H        1.0477559879    0.6372646669    2.1329354609
O       -0.7023170133    0.8489935650   -2.4621491297
H       -0.0172280472    1.1278845766   -3.0764881002
H       -0.5444577088   -0.1074770433   -2.3102988587
O       -0.1996921644   -1.7564582745   -1.7627928915
H        0.4250958486   -1.7986942773   -1.0098843978
H        0.0015989816   -2.5026521811   -2.3325961908
O       -0.5662585554    1.8853378199    0.0671618518
H       -0.6478175219    1.5832670323   -0.8659028815
H       -1.0750338436    2.6986388098    0.1312753022
18   
Iteration 71 Energy -458.67051979
O        1.4077723342   -1.6397780473    0.4777667813
H        2.1269191322   -2.2208101545    0.7385111354
H        1.6603500442   -0.7340470005    0.7747706264
O       -0.8480403651   -0.1320849890    2.1652458814
H       -0.6170267551   -0.9769021960    1.7606871759
H       -1.0050918574    0.4634160544    1.4137014625
O        1.7415601077    0.8703099662    1.5043933312
H        1.2635962204    1.4616759141    0.9018496015
H        1.0435073482    0.6311298829    2.1385123632
O       -0.6742701509    0.8603899737   -2.4734196735
H        0.0156553999    1.1305072326   -3.0860538305
H       -0.5283405417   -0.0971289065   -2.3169345847
O       -0.2192331347   -1.7414802926   -1.7410344502
H        0.4183038481   -1.7899415133   -0.9992748551
H       -0.0653182828   -2.5135941517   -2.2906862081
O       -0.5711785077    1.8757888061    0.0634012906
H       -0.6386568066    1.5841320994   -0.8740765283
H       -1.0828680327    2.6870573219    0.1295104810
18   
Iteration 72 Energy -458.67052553
O        1.4515634112   -1.6273666322    0.4629858446
H        2.1963881237   -2.1880778952    0.6944532489
H        1.6812891906   -0.7186774301    0.7711708600
O       -0.8565449954   -0.1628286649    2.1451411992
H       -0.6156916712   -1.0042902840    1.7393694375
H       -1.0186532991    0.4327124635    1.3948121986
O        1.7251528704    0.8764962410    1.5192354230
H        1.2433102678    1.4683191873    0.9196622408
H        1.0238635259    0.6197937780    2.1432788633
O       -0.6342873481    0.8793962782   -2.4871093484
H        0.0740571825    1.1320547257   -3.0857289336
H       -0.5139728430   -0.0803270462   -2.3221259006
O       -0.2574540656   -1.7243535409   -1.7043755567
H        0.4061331450   -1.7866059262   -0.9868254453
H       -0.1902915655   -2.5327020871   -2.2180265780
O       -0.5727284221    1.8695639519    0.0583276470
H       -0.6232587483    1.5893394208   -0.8837689758
H       -1.0912347589    2.6761934605    0.1263937756
18   
Iteration 73 Energy -458.67053230
O        1.4356228505   -1.6325210458    0.4680911650
H        2.1856133060   -2.1913139211    0.6877867496
H        1.6684047048   -0.7225540151    0.7729867101
O       -0.8531889683   -0.1537572105    2.1659136346
H       -0.6179006939   -0.9974426478    1.7612055532
H       -1.0287146972    0.4359724540    1.4143045662
O        1.7206491331    0.8658958396    1.5089215809
H        1.2346663310    1.4533965197    0.9076779799
H        1.0219065120    0.6181942887    2.1400538111
O       -0.6400933918    0.8743347634   -2.4832415136
H        0.0481997496    1.1416304168   -3.0982424872
H       -0.5040318658   -0.0849596958   -2.3268541360
O       -0.2371050584   -1.7136716326   -1.7105753719
H        0.4178682052   -1.7699144368   -0.9844039766
H       -0.1568304331   -2.5216538023   -2.2229222269
O       -0.5684165653    1.8633440926    0.0550325861
H       -0.6208610710    1.5778053617   -0.8855286625
H       -1.0781480474    2.6758546712    0.1166640381
18   
Iteration 74 Energy -458.67054446
O        1.4453763451   -1.6326467198    0.4647146998
H        2.1966724944   -2.1904722346    0.6820706570
H        1.6755715183   -0.7236500423    0.7732442132
O       -0.8568858152   -0.1577707691    2.1556918491
H       -0.6224087241   -1.0012715656    1.7503820515
H       -1.0270716833    0.4348510893    1.4050264387
O        1.7218823726    0.8684016357    1.5126858663
H        1.2406623548    1.4581259113    0.9102613391
H        1.0192687267    0.6173159434    2.1379504909
O       -0.6360595811    0.8774168284   -2.4846536015
H        0.0652286243    1.1380123706   -3.0879716917
H       -0.5080967949   -0.0821404963   -2.3238027023
O       -0.2446163057   -1.7152785149   -1.7049005145
H        0.4159742534   -1.7742846183   -0.9841051785
H       -0.1776512004   -2.5265118378   -2.2139427343
O       -0.5721372896    1.8674189411    0.0575183965
H       -0.6232172925    1.5830438159   -0.8834071076
H       -1.0848520029    2.6780802629    0.1201075283
18   
Iteration 75 Energy -458.67055892
O        1.4746797020   -1.6325002757    0.4562263046
H        2.2414708722   -2.1777757627    0.6496229385
H        1.6919900333   -0.7237683108    0.7740230343
O       -0.8668556714   -0.1736968500    2.1368104305
H       -0.6343262627   -1.0171554272    1.7306889167
H       -1.0335298397    0.4218003032    1.3876436390
O        1.7152666827    0.8696187847    1.5196615815
H        1.2370692673    1.4601015972    0.9158791104
H        1.0078545814    0.6093630882    2.1355889595
O       -0.6177557881    0.8880793667   -2.4907889667
H        0.1015623909    1.1365578267   -3.0779374656
H       -0.5043346546   -0.0716163823   -2.3212348084
O       -0.2601706588   -1.7036480611   -1.6815323274
H        0.4151974178   -1.7730153752   -0.9754604415
H       -0.2490860731   -2.5326371426   -2.1654092256
O       -0.5777164753    1.8695486748    0.0575648070
H       -0.6207581829    1.5907203668   -0.8853392665
H       -1.0929173411    2.6786635790    0.1208627799
18   
Iteration 76 Energy -458.67058256
O        1.5422592643   -1.6381083671    0.4397522602
H        2.3452432477   -2.1488159396    0.5692012097
H        1.7298950079   -0.7312027404    0.7795119654
O       -0.8933190136   -0.2080406470    2.0940030294
H       -0.6706272594   -1.0525248531    1.6854059324
H       -1.0525150246    0.3942870201    1.3487836784
O        1.6979179755    0.8653050865    1.5342929629
H        1.2272576442    1.4555450740    0.9249003839
H        0.9794897923    0.5872113787    2.1290219177
O       -0.5849763184    0.9098158235   -2.5025289598
H        0.1641359509    1.1357473956   -3.0611490714
H       -0.4951505830   -0.0482723291   -2.3134984551
O       -0.2806918949   -1.6726682755   -1.6293413672
H        0.4215588573   -1.7687338380   -0.9530138281
H       -0.3986508033   -2.5300625103   -2.0439799924
O       -0.5873044192    1.8755226970    0.0558922022
H       -0.6155995956    1.6081447206   -0.8906798755
H       -1.1012828280    2.6854903039    0.1202960073
18   
Iteration 77 Energy -458.67061651
O        1.5602491364   -1.6534865584    0.4429437737
H        2.3720532922   -2.1556096017    0.5478937995
H        1.7431448207   -0.7484471980    0.7887081533
O       -0.9118196234   -0.2105184164    2.0729478218
H       -0.7031098146   -1.0554301115    1.6582889792
H       -1.0623971774    0.4007766438    1.3333344527
O        1.6962139110    0.8521860753    1.5373887344
H        1.2376270987    1.4415124575    0.9185786970
H        0.9682013443    0.5760539899    2.1208513545
O       -0.6055400059    0.9082375439   -2.4949637152
H        0.1416811193    1.1366676640   -3.0554228442
H       -0.5036196404   -0.0467461460   -2.2977878836
O       -0.2574467104   -1.6600645685   -1.6181074806
H        0.4468602541   -1.7592520391   -0.9440610082
H       -0.4009169500   -2.5221951770   -2.0140944546
O       -0.5851349836    1.8893341958    0.0573128809
H       -0.6221644347    1.6180663349   -0.8876873210
H       -1.0862416363    2.7075549112    0.1207460604
18   
Iteration 78 Energy -458.67069065
O        1.6717224526   -1.6873783354    0.4241236553
H        2.5322740879   -2.1128131554    0.4076034698
H        1.8066131092   -0.7901291253    0.8087627072
O       -0.9676558456   -0.2436667516    2.0043086802
H       -0.8071481838   -1.0926597423    1.5780563508
H       -1.1032212130    0.3843205133    1.2760428793
O        1.6610656087    0.8125330761    1.5554730511
H        1.2205687653    1.3987421484    0.9211143324
H        0.9128826258    0.5191475619    2.1036984622
O       -0.5964822817    0.9307730364   -2.4993162689
H        0.1607409581    1.1469350292   -3.0513038578
H       -0.4923176985   -0.0167625839   -2.2717729535
O       -0.2332221590   -1.6089106869   -1.5429940634
H        0.4927741156   -1.7473845001   -0.8983380266
H       -0.5624041895   -2.4709913754   -1.8046673896
O       -0.5882648733    1.9077145285    0.0535029454
H       -0.6191651638    1.6465459800   -0.8944569485
H       -1.0611201153    2.7426243825    0.1170329746
18   
Iteration 79 Energy -458.67083865
O        1.7413903235   -1.7290666861    0.4160764279
H        2.6253719969   -2.0929389156    0.3261321371
H        1.8410314681   -0.8369134799    0.8230780279
O       -1.0183460713   -0.2351958198    1.9615047373
H       -0.9250671211   -1.0809507318    1.5100352695
H       -1.1378838837    0.4175079131    1.2524289837
O        1.6323242690    0.7489660085    1.5669357173
H        1.2107900355    1.3330780024    0.9174955265
H        0.8661266696    0.4565356747    2.0906493740
O       -0.6436137654    0.9256998786   -2.4783789792
H        0.0684239664    1.1613795628   -3.0798383348
H       -0.4878694546   -0.0121041565   -2.2390932046
O       -0.1603676818   -1.5775478458   -1.5064165946
H        0.5698162923   -1.7182698696   -0.8650635102
H       -0.5664286582   -2.4287901552   -1.6813763229
O       -0.5712823094    1.9310834170    0.0531232567
H       -0.6210503310    1.6644950591   -0.8928027393
H       -0.9957257446    2.7916721440    0.1123802279
18   
Iteration 80 Energy -458.67100989
O        1.7797577838   -1.7331442092    0.3998952341
H        2.6737650486   -2.0760444187    0.3262341306
H        1.8512183265   -0.8410453135    0.8138741896
O       -1.0507950162   -0.2193161523    1.9339470434
H       -0.9918850654   -1.0465254254    1.4436775084
H       -1.1495226145    0.4656842135    1.2522331370
O        1.6181085348    0.7091711866    1.5985306068
H        1.2136154638    1.3059915125    0.9493195249
H        0.8372891434    0.4114710453    2.0980668835
O       -0.6858552382    0.9034859877   -2.4506513440
H       -0.0296943215    1.1511205327   -3.1078665443
H       -0.4936984105   -0.0295818895   -2.2181116576
O       -0.1332564135   -1.5800562912   -1.5044251443
H        0.6093834881   -1.7050366727   -0.8728633267
H       -0.5309925965   -2.4404689304   -1.6542090892
O       -0.5402624085    1.9495588755    0.0561111135
H       -0.6123511148    1.6698439292   -0.8848022282
H       -0.9371845894    2.8235320197    0.1079099625
18   
Iteration 81 Energy -458.66985177
O        2.1626570175   -1.7989831561    0.2863645693
H        3.0951159268   -1.8920489531    0.0753395332
H        2.0714516770   -0.9838949034    0.8341326786
O       -1.2848038853   -0.2181497369    1.6705301131
H       -1.4321879026   -0.9350932566    1.0451947278
H       -1.2445309055    0.5787918010    1.1135110164
O        1.5014515396    0.4851085691    1.7576730506
H        1.2176579020    1.1536471886    1.1146584135
H        0.6422743435    0.1472821119    2.0721298208
O       -0.8153376766    0.8730932488   -2.3669414081
H       -0.3296999084    1.1007875568   -3.1638722039
H       -0.5148022114   -0.0232248478   -2.1056725350
O       -0.0310150740   -1.5581524439   -1.3534782233
H        0.7656653369   -1.7476160099   -0.8029524218
H       -0.6588282114   -2.2639292822   -1.1787647702
O       -0.4386476862    2.0571312615    0.0617185998
H       -0.5768799513    1.7627952401   -0.8676195315
H       -0.7019003305    2.9810956121    0.0949185707
18   
Iteration 82 Energy -458.67122842
O        1.9606021187   -1.7597437284    0.3413149211
H        2.8840211106   -1.9908325350    0.2131055005
H        1.9455548017   -0.8970976592    0.8193853964
O       -1.1582229742   -0.2038170994    1.8110283288
H       -1.2037852752   -0.9861088450    1.2511371546
H       -1.1882819264    0.5418726168    1.1871186461
O        1.5660494475    0.5995023700    1.6788129142
H        1.2204079741    1.2404358360    1.0379711965
H        0.7434237219    0.2771735786    2.0903516577
O       -0.7456831822    0.8861803788   -2.4109752908
H       -0.1640631853    1.1232820146   -3.1381234633
H       -0.5117046708   -0.0334097503   -2.1626940072
O       -0.0954885459   -1.5706733174   -1.4329050817
H        0.6855674096   -1.7141234862   -0.8508618884
H       -0.5935771827   -2.3916759458   -1.4379933241
O       -0.4887912064    1.9973730875    0.0599498664
H       -0.5920122431    1.7078179158   -0.8752558328
H       -0.8363761920    2.8924845686    0.1055033063
18   
Iteration 83 Energy -458.67137723
O        2.0191801323   -1.7530532017    0.3105754723
H        2.9505957463   -1.9792269773    0.2442831767
H        1.9625479489   -0.9098877024    0.8212727071
O       -1.2091152823   -0.0904660027    1.7453759221
H       -1.3257611708   -0.8314421101    1.1407662579
H       -1.1706857153    0.6883776449    1.1588709584
O        1.5576385962    0.4935980861    1.7339353400
H        1.2833573794    1.2147145548    1.1478407633
H        0.6991878503    0.1839821039    2.0815707898
O       -0.8339152973    0.8465561416   -2.3728450670
H       -0.3254284268    1.0719313623   -3.1558933366
H       -0.5818568007   -0.0716818603   -2.1339904510
O       -0.0917261405   -1.6105525656   -1.4147460153
H        0.7318610632   -1.6821707111   -0.8802033902
H       -0.4425825523   -2.5032046291   -1.4797463876
O       -0.4266171240    2.0248042694    0.0702208615
H       -0.5749303589    1.7147158557   -0.8525070630
H       -0.7941098478    2.9116457417    0.1220894617
18   
Iteration 84 Energy -458.67166885
O        1.9878557349   -1.7243278185    0.3171566429
H        2.9147526610   -1.9647133000    0.2450315062
H        1.9522855238   -0.8824912810    0.8313775800
O       -1.1972834353   -0.1510236859    1.7626417583
H       -1.2314879662   -0.9045556462    1.1629089343
H       -1.1789486024    0.6232431927    1.1721961574
O        1.5566806394    0.5465329256    1.7444842513
H        1.2786988268    1.2535792309    1.1431353535
H        0.7014212642    0.2342192154    2.0936341176
O       -0.8118979575    0.8549396784   -2.3842160088
H       -0.2855386687    1.0644435971   -3.1603940175
H       -0.5849456830   -0.0682455674   -2.1449487519
O       -0.1196359402   -1.6160042245   -1.4173104553
H        0.6983677950   -1.7054613188   -0.8797575065
H       -0.4913594394   -2.4978986400   -1.4985604513
O       -0.4133850207    2.0273897645    0.0567614640
H       -0.5514557293    1.7217152051   -0.8682816183
H       -0.7964840024    2.9072986724    0.1110110441
18   
Iteration 85 Energy -458.67188792
O        2.0400267223   -1.7295420527    0.2890497491
H        2.9726727340   -1.9284765135    0.1812710998
H        1.9850847082   -0.9116220830    0.8376785657
O       -1.2327195185   -0.1560855131    1.7088678122
H       -1.2664126502   -0.8969597575    1.0936859138
H       -1.1955579392    0.6298030296    1.1363163562
O        1.5368062016    0.5204306202    1.7515364046
H        1.2827717900    1.2386151764    1.1543810854
H        0.6714187136    0.2088666740    2.0740484946
O       -0.8023338166    0.8577827349   -2.3614061595
H       -0.2564044264    1.0504933773   -3.1288913131
H       -0.5948097827   -0.0668694659   -2.1137470523
O       -0.1363574238   -1.6188720924   -1.3616764547
H        0.6933308939   -1.7233408046   -0.8454995999
H       -0.5299313229   -2.4913372499   -1.4345915035
O       -0.4030110052    2.0592770951    0.0610317429
H       -0.5373317892    1.7427844911   -0.8601668064
H       -0.7996020888    2.9336923338    0.1049816653
18   
Iteration 86 Energy -458.67245442
O        2.1209687455   -1.6860512066    0.2266955208
H        3.0580470987   -1.8321209485    0.0863298768
H        2.0390837198   -0.9257782264    0.8478018447
O       -1.3000202503   -0.1824238721    1.5676077883
H       -1.2301587705   -0.8698984479    0.8947980276
H       -1.2364232479    0.6483144502    1.0690338169
O        1.4947932489    0.4859454924    1.7876553070
H        1.2992287370    1.2410318080    1.2174574885
H        0.6077206160    0.1758240947    2.0422532017
O       -0.7677346612    0.8495368189   -2.3051782000
H       -0.2032255038    0.9848353024   -3.0723561584
H       -0.6332878341   -0.0829813989   -2.0453951224
O       -0.2420937694   -1.6691747336   -1.2092792552
H        0.6274310204   -1.7724990472   -0.7669782225
H       -0.5833900068   -2.5496006755   -1.3762157568
O       -0.3508774776    2.1342280907    0.0713347879
H       -0.4693618292    1.7872852536   -0.8392085993
H       -0.8030598356    2.9821672459    0.0905136548
18   
Iteration 87 Energy -458.67049460
O        2.2888224983   -1.6156993213    0.1132555133
H        3.2275120637   -1.6529545061   -0.0756605687
H        2.1612923976   -0.9727899773    0.8448752652
O       -1.4523259702   -0.2322437965    1.2329994632
H       -1.2215976172   -0.7382644114    0.4413641623
H       -1.3621173314    0.6905769498    0.9549458142
O        1.3893011284    0.3749325162    1.8570251015
H        1.2983171888    1.1928689019    1.3533120192
H        0.4703235984    0.0746534581    1.9619890150
O       -0.7576041801    0.7970661258   -2.1707086367
H       -0.2632407929    0.8538180708   -2.9942179448
H       -0.6823229824   -0.1315966224   -1.8839461416
O       -0.3462042036   -1.7716443477   -0.9030025422
H        0.5923568556   -1.8517643634   -0.6333429155
H       -0.6294909459   -2.6311575705   -1.2203163801
O       -0.2382667481    2.2975255127    0.1117074346
H       -0.3590821994    1.8894369932   -0.7705364914
H       -0.6880327595    3.1458763880    0.0671278325
18   
Iteration 88 Energy -458.67276804
O        2.1783613167   -1.6459592931    0.1719972895
H        3.1145973528   -1.7477464589   -0.0071286258
H        2.0858151742   -0.9366998226    0.8465608438
O       -1.3612445697   -0.2163028257    1.4099486015
H       -1.1899242949   -0.8161714177    0.6718590774
H       -1.2956380679    0.6668812271    1.0166169131
O        1.4449048900    0.4488955631    1.8031653948
H        1.2840569777    1.2281355342    1.2556441557
H        0.5463364730    0.1293425821    1.9950718482
O       -0.7346256332    0.8259551511   -2.2377405895
H       -0.1848882358    0.9184136370   -3.0217636931
H       -0.6467428704   -0.1068898773   -1.9641115132
O       -0.3144155370   -1.7228327326   -1.0352189482
H        0.5931963439   -1.8215384327   -0.6777850043
H       -0.6071821915   -2.5909671940   -1.3189768782
O       -0.3088748577    2.2118626763    0.0987581660
H       -0.4143130499    1.8347425265   -0.8001202593
H       -0.7617792203    3.0595191573    0.0800932218
18   
Iteration 89 Energy -458.67303330
O        2.0664550580   -1.6537222928    0.1830846080
H        2.9944531406   -1.7928171631   -0.0182635545
H        2.0121846238   -0.8987784196    0.8097325739
O       -1.2801729126   -0.2022661349    1.5359965779
H       -1.1462917672   -0.8524495924    0.8319735651
H       -1.2711046378    0.6517161948    1.0776314526
O        1.4550461865    0.4995005374    1.7138349377
H        1.2133635680    1.2414805701    1.1409238365
H        0.5852455468    0.1445233367    1.9685302724
O       -0.6401272438    0.8361842104   -2.2628743123
H       -0.0294198515    0.9499110377   -2.9964406128
H       -0.5681316387   -0.1007461644   -1.9940137272
O       -0.3052945468   -1.7021275115   -1.0698080845
H        0.5885199986   -1.8243351833   -0.6816063946
H       -0.5995753496   -2.5618286460   -1.3804296777
O       -0.3915170449    2.1574419282    0.1222006633
H       -0.4542038453    1.8004317386   -0.7894267413
H       -0.8017892840    3.0265215540    0.0958246175
18   
Iteration 90 Energy -458.67294315
O        2.1626650655   -1.6647865126    0.1301870264
H        3.0997885790   -1.7304852959   -0.0703847077
H        2.0483133157   -0.9115750647    0.7532827812
O       -1.3443972723   -0.1808494624    1.4985415956
H       -1.3694473236   -0.7857638000    0.7425889323
H       -1.2902178981    0.7017525280    1.0941375052
O        1.4066283700    0.3953910345    1.7591609652
H        1.1995688443    1.1715018768    1.2156775760
H        0.5136550847    0.0463933185    1.9441977597
O       -0.6740390597    0.7947258878   -2.2388283350
H       -0.1550048184    0.9294530749   -3.0351120090
H       -0.5160661492   -0.1276181726   -1.9518788994
O       -0.2386996229   -1.6632486707   -1.0737451938
H        0.6798542728   -1.7914117770   -0.7387129590
H       -0.6011963628   -2.5435745763   -1.2160265183
O       -0.3673470740    2.1733576713    0.1375446818
H       -0.4625071503    1.8180249048   -0.7729960528
H       -0.6639108006    3.0873530355    0.1092358515
18   
Iteration 91 Energy -458.67381034
O        2.1418330226   -1.6468576690    0.1652899664
H        3.0768891858   -1.7248464850   -0.0352457408
H        2.0323903921   -0.8774615948    0.7722666569
O       -1.3303944338   -0.2301630458    1.4669407520
H       -1.2322938885   -0.8353251033    0.7175828263
H       -1.3164120602    0.6523174048    1.0611606168
O        1.4224288712    0.4243365761    1.7530796497
H        1.2143897068    1.1978578215    1.2075748532
H        0.5307572274    0.0792879136    1.9526372283
O       -0.6665636828    0.8084994693   -2.2537904834
H       -0.1299267479    0.9226821993   -3.0420310245
H       -0.5347532072   -0.1151371462   -1.9601333258
O       -0.3046883809   -1.6641752771   -1.0278044243
H        0.6123719970   -1.7696654568   -0.6832278420
H       -0.6216126696   -2.5471144984   -1.2388808562
O       -0.3487092443    2.1600908399    0.1178142949
H       -0.4379413076    1.8220452276   -0.7987153569
H       -0.6801247801    3.0622688242    0.1123522093
18   
Iteration 92 Energy -458.67381874
O        2.1004823572   -1.6245364120    0.1561914640
H        3.0289940422   -1.7077701149   -0.0698660071
H        2.0102071327   -0.8583099697    0.7710058141
O       -1.3199344986   -0.2735103417    1.4225026817
H       -1.1317249343   -0.8397253031    0.6582165984
H       -1.3389526106    0.6211104051    1.0506437542
O        1.4087636208    0.4538656776    1.7357264788
H        1.1932438289    1.2260880612    1.1923186067
H        0.5220883899    0.0977075403    1.9365978076
O       -0.6275492533    0.7966227457   -2.2292354861
H       -0.0566081219    0.8808324291   -2.9974714950
H       -0.5436555469   -0.1295327555   -1.9272801707
O       -0.3491004338   -1.6881372358   -0.9508257922
H        0.5819646243   -1.7816194249   -0.6425376592
H       -0.6260975689   -2.5501539594   -1.2729305168
O       -0.3341503784    2.1835080504    0.1294808031
H       -0.4162533794    1.8303614203   -0.7811154290
H       -0.6740772700    3.0818391874    0.1054485476
18   
Iteration 93 Energy -458.67404014
O        2.0966418052   -1.6326124043    0.1559631059
H        3.0269538301   -1.7133335286   -0.0642173380
H        2.0007503434   -0.8581319574    0.7604240746
O       -1.3129942857   -0.2556863632    1.4647571099
H       -1.1764185874   -0.8489419685    0.7105561200
H       -1.3222724467    0.6290518300    1.0679451813
O        1.4154286685    0.4508048664    1.7376382768
H        1.1954285337    1.2241038465    1.1970461276
H        0.5292874722    0.0969048181    1.9459378860
O       -0.6304503805    0.7969782830   -2.2428057305
H       -0.0531740087    0.8867150682   -3.0056438203
H       -0.5374407349   -0.1279119326   -1.9383869332
O       -0.3305037188   -1.6723143585   -0.9949772075
H        0.5971191646   -1.7685278773   -0.6757132507
H       -0.6223185857   -2.5442491546   -1.2748426104
O       -0.3423270634    2.1684368795    0.1245433766
H       -0.4260511293    1.8195576176   -0.7878735541
H       -0.6800188764    3.0677963358    0.1065191860
18   
Iteration 94 Energy -458.67405078
O        2.1048061580   -1.6337982972    0.1572087791
H        3.0251506138   -1.6842242779   -0.1097949608
H        2.0131242155   -0.8568949306    0.7599715523
O       -1.3105083903   -0.2704063563    1.4667663391
H       -1.1850215986   -0.8684813771    0.7140984293
H       -1.3255507271    0.6123201980    1.0650527477
O        1.4155765681    0.4469506630    1.7335852187
H        1.1853422908    1.2163606814    1.1910222794
H        0.5334188740    0.0855650153    1.9461756385
O       -0.6037014127    0.8060607792   -2.2633415791
H       -0.0113050955    0.8881687670   -3.0151978746
H       -0.5159373968   -0.1142643620   -1.9431350321
O       -0.3453085698   -1.6422130355   -0.9756987228
H        0.5816718964   -1.7536752931   -0.6568188990
H       -0.6662548488   -2.5172633232   -1.2109753908
O       -0.3529475088    2.1477885768    0.1190595692
H       -0.4215406491    1.8103099698   -0.7989196942
H       -0.6933744190    3.0463366022    0.1078115999
18   
Iteration 95 Energy -458.67412211
O        2.0888680786   -1.6310512960    0.1514003171
H        3.0092072871   -1.6815774494   -0.1150917289
H        1.9980515992   -0.8508518701    0.7507499505
O       -1.3066824105   -0.2677584915    1.4789704353
H       -1.1860523294   -0.8615466459    0.7221877593
H       -1.3239994204    0.6160374662    1.0802747560
O        1.4193693653    0.4518032480    1.7360458076
H        1.1886861033    1.2250006950    1.1995102683
H        0.5375552358    0.0902489064    1.9498157938
O       -0.6022543741    0.7987468861   -2.2619410282
H        0.0060856960    0.8738165798   -3.0019327943
H       -0.5273210961   -0.1227021695   -1.9412191420
O       -0.3470444393   -1.6493459727   -0.9818377405
H        0.5820432382   -1.7480235509   -0.6643092311
H       -0.6482431972   -2.5246531513   -1.2403180497
O       -0.3489895605    2.1490110467    0.1189445606
H       -0.4192999356    1.8051859044   -0.7965491467
H       -0.6923398405    3.0462998648    0.1021692130
18   
Iteration 96 Energy -458.67416208
O        2.0784954553   -1.6260937463    0.1398406672
H        2.9909493597   -1.6558796000   -0.1555388430
H        1.9909450313   -0.8472866598    0.7419586580
O       -1.3039883810   -0.2684305046    1.4906491053
H       -1.1891742635   -0.8583173456    0.7298606088
H       -1.3274749247    0.6164542316    1.0952397044
O        1.4205452598    0.4519438889    1.7382150422
H        1.1883826302    1.2294188269    1.2089166820
H        0.5395922116    0.0888119278    1.9525904942
O       -0.5821498497    0.7934972858   -2.2659436279
H        0.0558260172    0.8549076535   -2.9821209707
H       -0.5312775280   -0.1276593436   -1.9398834508
O       -0.3605752484   -1.6521155468   -0.9757535711
H        0.5719553669   -1.7421065225   -0.6649418766
H       -0.6515456585   -2.5278105967   -1.2439051354
O       -0.3505672904    2.1479680255    0.1190418085
H       -0.4135674374    1.7981875861   -0.7947643103
H       -0.6987307502    3.0431504397    0.0934090151
18   
Iteration 97 Energy -458.67419444
O        2.0700926203   -1.6202592934    0.1299869229
H        2.9678732189   -1.6152704094   -0.2092078115
H        1.9822931661   -0.8413942806    0.7322672469
O       -1.3085210708   -0.2764304398    1.4957935973
H       -1.1904835174   -0.8584477339    0.7292828092
H       -1.3383706800    0.6114329532    1.1079728006
O        1.4240158298    0.4501460212    1.7416989320
H        1.1849103409    1.2294771603    1.2181407893
H        0.5462780586    0.0835619116    1.9623945038
O       -0.5621961872    0.7865574659   -2.2706592596
H        0.1041417386    0.8340217239   -2.9618912422
H       -0.5334174287   -0.1326844568   -1.9369668393
O       -0.3712205134   -1.6511274446   -0.9677294971
H        0.5620942449   -1.7373635047   -0.6572484137
H       -0.6591652246   -2.5284521987   -1.2337407472
O       -0.3487578038    2.1482354112    0.1176927350
H       -0.4047033526    1.7935880407   -0.7947970666
H       -0.6972234396    3.0430490740    0.0838805401
18   
Iteration 98 Energy -458.67420863
O        2.0746958456   -1.6114670959    0.1089244092
H        2.9545978789   -1.5648913570   -0.2718431540
H        1.9833221579   -0.8406759223    0.7209749155
O       -1.3103059569   -0.2748876764    1.5059319807
H       -1.1957667524   -0.8540800510    0.7365831020
H       -1.3456951718    0.6141178302    1.1216023441
O        1.4163345976    0.4444346440    1.7447578524
H        1.1737411465    1.2290529197    1.2306761111
H        0.5402762995    0.0737832630    1.9652032348
O       -0.5299216399    0.7822173013   -2.2730553445
H        0.1617596451    0.8198753528   -2.9396594976
H       -0.5242699709   -0.1368641935   -1.9383726423
O       -0.3926570007   -1.6585746887   -0.9560621762
H        0.5441887111   -1.7395474078   -0.6540742210
H       -0.6795802849   -2.5380164223   -1.2164693927
O       -0.3520259463    2.1460929814    0.1197388220
H       -0.3955544204    1.7857115020   -0.7912388432
H       -0.6954991377    3.0423590204    0.0732524998
18   
Iteration 99 Energy -458.67422646
O        2.0792176452   -1.6146465918    0.1146137257
H        2.9528978710   -1.5568686895   -0.2789754725
H        1.9861102918   -0.8443283070    0.7267470700
O       -1.3195087092   -0.2739622344    1.4968721950
H       -1.1990943103   -0.8530770021    0.7283424717
H       -1.3496028517    0.6157904269    1.1137612238
O        1.4143670122    0.4362657845    1.7454523175
H        1.1752971210    1.2208848030    1.2295100817
H        0.5365685459    0.0706756027    1.9670267617
O       -0.5428131175    0.7806478495   -2.2684326976
H        0.1389845962    0.8265672865   -2.9445128516
H       -0.5239248487   -0.1384758851   -1.9344535681
O       -0.3815934228   -1.6578151708   -0.9548634488
H        0.5527652375   -1.7418078656   -0.6461881802
H       -0.6722286610   -2.5379955967   -1.2088108594
O       -0.3445177983    2.1495156228    0.1189815304
H       -0.3945058785    1.7886905422   -0.7915153796
H       -0.6807787228    3.0485794249    0.0733150806
18   
Iteration 100 Energy -458.67423990
O        2.0858349214   -1.6144824826    0.1190043561
H        2.9589430871   -1.5460631756   -0.2743666757
H        1.9814737962   -0.8433372819    0.7281078962
O       -1.3297027027   -0.2721515041    1.4857426002
H       -1.1975226441   -0.8524237314    0.7200199393
H       -1.3492486878    0.6179323442    1.1025151474
O        1.4100519435    0.4339979958    1.7483892862
H        1.1662322615    1.2167709367    1.2312134412
H        0.5341654081    0.0661753722    1.9732313655
O       -0.5580200302    0.7777297978   -2.2594831333
H        0.1042021499    0.8355546947   -2.9536497083
H       -0.5213247346   -0.1426167063   -1.9299094470
O       -0.3708254908   -1.6625993239   -0.9588153650
H        0.5613003507   -1.7507602399   -0.6445578471
H       -0.6673722133   -2.5431016876   -1.2051433958
O       -0.3315944395    2.1524302512    0.1193880014
H       -0.3913296234    1.7902444739   -0.7900456729
H       -0.6576233520    3.0553402668    0.0752292116
18   
Iteration 101 Energy -458.67424816
O        2.0923348771   -1.6182436421    0.1232028560
H        2.9548205183   -1.5309664892   -0.2894834063
H        1.9861475616   -0.8488509417    0.7344693523
O       -1.3367000482   -0.2649562884    1.4815871491
H       -1.2040392999   -0.8498577164    0.7195751131
H       -1.3472946686    0.6236942105    1.0947436021
O        1.4047092916    0.4258614888    1.7524173147
H        1.1674945993    1.2106178420    1.2352044171
H        0.5258906821    0.0634518928    1.9743699860
O       -0.5701198391    0.7759009883   -2.2565681268
H        0.0825650663    0.8399605865   -2.9590810744
H       -0.5229901476   -0.1448355364   -1.9289571440
O       -0.3643127425   -1.6648166986   -0.9558970053
H        0.5675833175   -1.7491974904   -0.6390576239
H       -0.6572653962   -2.5463259645   -1.2028267318
O       -0.3213837978    2.1520221736    0.1187294690
H       -0.3885306672    1.7880913198   -0.7895740511
H       -0.6412693066    3.0570902655    0.0740159042
18   
Iteration 102 Energy -458.67425304
O        2.0946263376   -1.6187473780    0.1242987883
H        2.9537077704   -1.5223582490   -0.2935074737
H        1.9845365945   -0.8494904569    0.7352915104
O       -1.3387129915   -0.2609737721    1.4796692670
H       -1.2061583334   -0.8474441085    0.7189749537
H       -1.3431943830    0.6270063010    1.0912047817
O        1.4025111935    0.4252826451    1.7544084570
H        1.1656730134    1.2102941771    1.2374186646
H        0.5237608366    0.0629503639    1.9761907057
O       -0.5727653938    0.7747742104   -2.2539522903
H        0.0758358946    0.8379313065   -2.9603587649
H       -0.5258752502   -0.1465600056   -1.9276436426
O       -0.3635995722   -1.6676776816   -0.9552825073
H        0.5691491603   -1.7504556251   -0.6398713470
H       -0.6539274253   -2.5489608539   -1.2058588565
O       -0.3156621157    2.1512459853    0.1194405580
H       -0.3855277154    1.7859638386   -0.7881672973
H       -0.6367376205    3.0558593028    0.0746144933
18   
Iteration 103 Energy -458.67425579
O        2.0953233051   -1.6194969522    0.1273997062
H        2.9513081467   -1.5162853246   -0.2952366173
H        1.9829178824   -0.8495709364    0.7374000465
O       -1.3388706408   -0.2594361730    1.4790091156
H       -1.2056067424   -0.8475472071    0.7197701007
H       -1.3400480073    0.6277596301    1.0886984301
O        1.4018524447    0.4268854962    1.7571547141
H        1.1646643128    1.2106526549    1.2384119545
H        0.5233920560    0.0637619269    1.9783581251
O       -0.5752348934    0.7744020990   -2.2535222979
H        0.0672890962    0.8337711446   -2.9658123707
H       -0.5293833134   -0.1468823091   -1.9268359509
O       -0.3625173643   -1.6684049778   -0.9555087104
H        0.5705290546   -1.7495386634   -0.6400149679
H       -0.6501043901   -2.5495175541   -1.2096913741
O       -0.3113900167    2.1491840895    0.1192896822
H       -0.3825269431    1.7855307283   -0.7888906945
H       -0.6339539873    3.0533723282    0.0768911088
18   
Iteration 104 Energy -458.67425694
O        2.0965114327   -1.6198608496    0.1286211831
H        2.9511729557   -1.5124520027   -0.2957249805
H        1.9821889831   -0.8504830552    0.7389683127
O       -1.3392366579   -0.2589972128    1.4775926798
H       -1.2067149646   -0.8469207455    0.7180999388
H       -1.3392160740    0.6283558881    1.0875996865
O        1.4014857838    0.4266070007    1.7577903433
H        1.1647501718    1.2094903648    1.2374968810
H        0.5228105138    0.0638736005    1.9787243728
O       -0.5752348205    0.7742259188   -2.2521595991
H        0.0627307831    0.8307204906   -2.9687632378
H       -0.5306243738   -0.1470202510   -1.9252692678
O       -0.3615982754   -1.6689409553   -0.9552361501
H        0.5714296614   -1.7498783911   -0.6395410833
H       -0.6483843189   -2.5499083866   -1.2108140717
O       -0.3098460666    2.1494636631    0.1196174863
H       -0.3808819294    1.7871086390   -0.7890514430
H       -0.6337028042    3.0532562843    0.0789189490
18   
Iteration 105 Energy -458.67425755
O        2.0965013631   -1.6196425068    0.1304077866
H        2.9496299373   -1.5097097121   -0.2964574351
H        1.9820688494   -0.8504993542    0.7409892911
O       -1.3387936286   -0.2599323554    1.4772250867
H       -1.2058368288   -0.8478499674    0.7177813293
H       -1.3395733474    0.6274344581    1.0872334536
O        1.4015731559    0.4269720229    1.7591754473
H        1.1656334055    1.2087057018    1.2367718783
H        0.5223931082    0.0646603340    1.9790854231
O       -0.5751763239    0.7740859243   -2.2518026599
H        0.0577422397    0.8288450714   -2.9729585886
H       -0.5304241692   -0.1470448808   -1.9247246602
O       -0.3606896341   -1.6686374291   -0.9560544302
H        0.5717929969   -1.7495613026   -0.6388470644
H       -0.6474441149   -2.5497584579   -1.2111770959
O       -0.3090294866    2.1490699555    0.1194453259
H       -0.3797004321    1.7886051320   -0.7899382988
H       -0.6330270904    3.0528973664    0.0807152109
18   
Iteration 106 Energy -458.67425767
O        2.0969641742   -1.6197312407    0.1303687976
H        2.9498685863   -1.5090918417   -0.2967550272
H        1.9823271668   -0.8511892695    0.7416080606
O       -1.3388516065   -0.2601379852    1.4768267283
H       -1.2070400754   -0.8479717766    0.7171097928
H       -1.3400702144    0.6273639230    1.0871298197
O        1.4014871374    0.4265678184    1.7590999609
H        1.1656336764    1.2081771920    1.2364605854
H        0.5221986493    0.0640906423    1.9784670156
O       -0.5752280499    0.7739269056   -2.2512094183
H        0.0563360527    0.8288708647   -2.9735161467
H       -0.5299748119   -0.1472427031   -1.9243028571
O       -0.3603023627   -1.6686630125   -0.9557307955
H        0.5719359957   -1.7494024438   -0.6378435661
H       -0.6467427059   -2.5498508602   -1.2110015280
O       -0.3089065814    2.1497096224    0.1193543961
H       -0.3795663582    1.7894950277   -0.7900990689
H       -0.6324286726    3.0537191372    0.0809032507
